 vasp.5.4.1 24Jun15 (build Jul 19 2016 16:50:41) complex

 executed on           IFC91_ompi date 2019.10.10  11:17:10

 INCAR:
 POTCAR:    PAW_PBE Si 05Jan2001
 POTCAR:    PAW_PBE Si 05Jan2001
   VRHFIN = Si: s2p2

   TITEL  = PAW_PBE Si 05Jan2001
   POMASS =   28.085; ZVAL   =    4.000    mass and valenz
   ENMAX  =  245.345; ENMIN  =  184.009 eV

  PAW_PBE Si 05Jan2001                  :

 POSCAR: Si HCP
  positions in direct lattice
 exchange correlation table for  LEXCH =        8
   RHO(1)=    0.500       N(1)  =     2000
   RHO(2)=  100.500       N(2)  =     4000

 ion  position               nearest neighbor table
   1  0.000  0.000  0.000-   2 3.00   2 3.00   2 3.00   2 3.00   2 3.00   2 3.00
   2  0.333  0.667  0.500-   1 3.00   1 3.00   1 3.00   1 3.00   1 3.00   1 3.00

  LATTYP: Found a hexagonal cell.
 ALAT       =     3.0000000000
 C/A-ratio  =     1.6329900000

  Lattice vectors:

 A1 = (   3.0000000000,   0.0000000000,   0.0000000000)
 A2 = (  -1.5000000000,   2.5980762114,   0.0000000000)
 A3 = (   0.0000000000,   0.0000000000,   4.8989700000)

Analysis of symmetry for initial positions (statically):
 Subroutine PRICEL returns:
 Original cell was already a primitive cell.

 Routine SETGRP: Setting up the symmetry group for a
 hexagonal supercell.

 Subroutine GETGRP returns: Found 24 space group operations
 (whereof 12 operations were pure point group operations)
 out of a pool of 24 trial point group operations.

The static configuration has the point symmetry D_3h.
 The point group associated with its full space group is D_6h.

Analysis of symmetry for dynamics (positions and initial velocities):
 Subroutine PRICEL returns:
 Original cell was already a primitive cell.

 Routine SETGRP: Setting up the symmetry group for a
 hexagonal supercell.

 Subroutine GETGRP returns: Found 24 space group operations
 (whereof 12 operations were pure point group operations)
 out of a pool of 24 trial point group operations.

The dynamic configuration has the point symmetry D_3h.
 The point group associated with its full space group is D_6h.

 Subroutine INISYM returns: Found 24 space group operations
 (whereof 12 operations are pure point group operations),
 and found     1 'primitive' translations

 KPOINTS: K-Points

Automatic generation of k-mesh.
Space group operators:
 irot       det(A)        alpha          n_x          n_y          n_z        tau_x        tau_y        tau_z
    1     1.000000     0.000000     1.000000     0.000000     0.000000     0.000000     0.000000     0.000000
    2    -1.000000    60.000000     0.000000     0.000000    -1.000000     0.000000     0.000000     0.000000
    3     1.000000   120.000000     0.000000     0.000000    -1.000000     0.000000     0.000000     0.000000
    4    -1.000000   180.000000     0.000000     0.000000     1.000000     0.000000     0.000000     0.000000
    5     1.000000   120.000000     0.000000     0.000000     1.000000     0.000000     0.000000     0.000000
    6    -1.000000    60.000000     0.000000     0.000000     1.000000     0.000000     0.000000     0.000000
    7    -1.000000   180.000000     1.000000     0.000000     0.000000     0.000000     0.000000     0.000000
    8     1.000000   180.000000     0.866025    -0.500000     0.000000     0.000000     0.000000     0.000000
    9    -1.000000   180.000000     0.500000    -0.866025     0.000000     0.000000     0.000000     0.000000
   10     1.000000   180.000000     0.000000     1.000000     0.000000     0.000000     0.000000     0.000000
   11    -1.000000   180.000000    -0.500000    -0.866025     0.000000     0.000000     0.000000     0.000000
   12     1.000000   180.000000     0.866025     0.500000     0.000000     0.000000     0.000000     0.000000
   13    -1.000000     0.000000     1.000000     0.000000     0.000000     0.333333     0.666667     0.500000
   14     1.000000    60.000000     0.000000     0.000000    -1.000000     0.333333     0.666667     0.500000
   15    -1.000000   120.000000     0.000000     0.000000    -1.000000     0.333333     0.666667     0.500000
   16     1.000000   180.000000     0.000000     0.000000     1.000000     0.333333     0.666667     0.500000
   17    -1.000000   120.000000     0.000000     0.000000     1.000000     0.333333     0.666667     0.500000
   18     1.000000    60.000000     0.000000     0.000000     1.000000     0.333333     0.666667     0.500000
   19     1.000000   180.000000     1.000000     0.000000     0.000000     0.333333     0.666667     0.500000
   20    -1.000000   180.000000     0.866025    -0.500000     0.000000     0.333333     0.666667     0.500000
   21     1.000000   180.000000     0.500000    -0.866025     0.000000     0.333333     0.666667     0.500000
   22    -1.000000   180.000000     0.000000     1.000000     0.000000     0.333333     0.666667     0.500000
   23     1.000000   180.000000    -0.500000    -0.866025     0.000000     0.333333     0.666667     0.500000
   24    -1.000000   180.000000     0.866025     0.500000     0.000000     0.333333     0.666667     0.500000

 Subroutine IBZKPT returns following result:

 Found     36 irreducible k-points:

 Following reciprocal coordinates:
            Coordinates               Weight
  0.083333  0.083333  0.083333     96.000000
  0.250000  0.083333  0.083333    192.000000
  0.416667  0.083333  0.083333    192.000000
 -0.416667  0.083333  0.083333    192.000000
 -0.250000  0.083333  0.083333    192.000000
 -0.083333  0.083333  0.083333     96.000000
  0.250000  0.250000  0.083333     96.000000
  0.416667  0.250000  0.083333    192.000000
 -0.416667  0.250000  0.083333    192.000000
 -0.250000  0.250000  0.083333     96.000000
  0.416667  0.416667  0.083333     96.000000
 -0.416667  0.416667  0.083333     96.000000
  0.083333  0.083333  0.250000     96.000000
  0.250000  0.083333  0.250000    192.000000
  0.416667  0.083333  0.250000    192.000000
 -0.416667  0.083333  0.250000    192.000000
 -0.250000  0.083333  0.250000    192.000000
 -0.083333  0.083333  0.250000     96.000000
  0.250000  0.250000  0.250000     96.000000
  0.416667  0.250000  0.250000    192.000000
 -0.416667  0.250000  0.250000    192.000000
 -0.250000  0.250000  0.250000     96.000000
  0.416667  0.416667  0.250000     96.000000
 -0.416667  0.416667  0.250000     96.000000
  0.083333  0.083333  0.416667     96.000000
  0.250000  0.083333  0.416667    192.000000
  0.416667  0.083333  0.416667    192.000000
 -0.416667  0.083333  0.416667    192.000000
 -0.250000  0.083333  0.416667    192.000000
 -0.083333  0.083333  0.416667     96.000000
  0.250000  0.250000  0.416667     96.000000
  0.416667  0.250000  0.416667    192.000000
 -0.416667  0.250000  0.416667    192.000000
 -0.250000  0.250000  0.416667     96.000000
  0.416667  0.416667  0.416667     96.000000
 -0.416667  0.416667  0.416667     96.000000

 Following cartesian coordinates:
            Coordinates               Weight
  0.083333  0.144338  0.051031     96.000000
  0.250000  0.240563  0.051031    192.000000
  0.416667  0.336788  0.051031    192.000000
 -0.416667 -0.144338  0.051031    192.000000
 -0.250000 -0.048113  0.051031    192.000000
 -0.083333  0.048113  0.051031     96.000000
  0.250000  0.433013  0.051031     96.000000
  0.416667  0.529238  0.051031    192.000000
 -0.416667  0.048113  0.051031    192.000000
 -0.250000  0.144338  0.051031     96.000000
  0.416667  0.721688  0.051031     96.000000
 -0.416667  0.240563  0.051031     96.000000
  0.083333  0.144338  0.153093     96.000000
  0.250000  0.240563  0.153093    192.000000
  0.416667  0.336788  0.153093    192.000000
 -0.416667 -0.144338  0.153093    192.000000
 -0.250000 -0.048113  0.153093    192.000000
 -0.083333  0.048113  0.153093     96.000000
  0.250000  0.433013  0.153093     96.000000
  0.416667  0.529238  0.153093    192.000000
 -0.416667  0.048113  0.153093    192.000000
 -0.250000  0.144338  0.153093     96.000000
  0.416667  0.721688  0.153093     96.000000
 -0.416667  0.240563  0.153093     96.000000
  0.083333  0.144338  0.255156     96.000000
  0.250000  0.240563  0.255156    192.000000
  0.416667  0.336788  0.255156    192.000000
 -0.416667 -0.144338  0.255156    192.000000
 -0.250000 -0.048113  0.255156    192.000000
 -0.083333  0.048113  0.255156     96.000000
  0.250000  0.433013  0.255156     96.000000
  0.416667  0.529238  0.255156    192.000000
 -0.416667  0.048113  0.255156    192.000000
 -0.250000  0.144338  0.255156     96.000000
  0.416667  0.721688  0.255156     96.000000
 -0.416667  0.240563  0.255156     96.000000

 I would recommend the setting:
   dimension x,y,z NGX =    21 NGY =   21 NGZ =   34
 SYSTEM =  Si beta-tin
 POSCAR =  Si HCP

 Startparameter for this run:
   NWRITE =      2    write-flag & timer
   PREC   = accura    normal or accurate (medium, high low for compatibility)
   ISTART =      0    job   : 0-new  1-cont  2-samecut
   ICHARG =      2    charge: 1-file 2-atom 10-const
   ISPIN  =      1    spin polarized calculation?
   LNONCOLLINEAR =      F non collinear calculations
   LSORBIT =      F    spin-orbit coupling
   INIWAV =      1    electr: 0-lowe 1-rand  2-diag
   LASPH  =      F    aspherical Exc in radial PAW
   METAGGA=      F    non-selfconsistent MetaGGA calc.

 Electronic Relaxation 1
   ENCUT  =  450.0 eV  33.07 Ry    5.75 a.u.   5.19  5.19  8.47*2*pi/ulx,y,z
   ENINI  =  450.0     initial cutoff
   ENAUG  =  322.1 eV  augmentation charge cutoff
   NELM   =     60;   NELMIN=  2; NELMDL= -5     # of ELM steps
   EDIFF  = 0.1E-04   stopping-criterion for ELM
   LREAL  =      F    real-space projection
   NLSPLINE    = F    spline interpolate recip. space projectors
   LCOMPAT=      F    compatible to vasp.4.4
   GGA_COMPAT  = T    GGA compatible to vasp.4.4-vasp.4.6
   LMAXPAW     = -100 max onsite density
   LMAXMIX     =    2 max onsite mixed and CHGCAR
   VOSKOWN=      0    Vosko Wilk Nusair interpolation
   ROPT   =    0.00000
 Ionic relaxation
   EDIFFG = -.1E-01   stopping-criterion for IOM
   NSW    =    100    number of steps for IOM
   NBLOCK =      1;   KBLOCK =    100    inner block; outer block
   IBRION =      2    ionic relax: 0-MD 1-quasi-New 2-CG
   NFREE  =      1    steps in history (QN), initial steepest desc. (CG)
   ISIF   =      4    stress and relaxation
   IWAVPR =     11    prediction:  0-non 1-charg 2-wave 3-comb
   ISYM   =      2    0-nonsym 1-usesym 2-fastsym
   LCORR  =      T    Harris-Foulkes like correction to forces

   POTIM  = 0.5000    time-step for ionic-motion
   TEIN   =    0.0    initial temperature
   TEBEG  =    0.0;   TEEND  =   0.0 temperature during run
   SMASS  =  -3.00    Nose mass-parameter (am)
   estimated Nose-frequenzy (Omega)   =  0.10E-29 period in steps =****** mass=  -0.206E-27a.u.
   SCALEE = 1.0000    scale energy and forces
   NPACO  =    256;   APACO  = 16.0  distance and # of slots for P.C.
   PSTRESS=    0.0 pullay stress

  Mass of Ions in am
   POMASS =  28.09
  Ionic Valenz
   ZVAL   =   4.00
  Atomic Wigner-Seitz radii
  virtual crystal weights
   VCA    =   1.00
   NELECT =       8.0000    total number of electrons
   NUPDOWN=      -1.0000    fix difference up-down

 DOS related values:
[...]
   0.41666667  0.72168784  0.15309341       0.019
  -0.41666667  0.24056261  0.15309341       0.019
   0.08333333  0.14433757  0.25515568       0.019
   0.25000000  0.24056261  0.25515568       0.037
   0.41666667  0.33678766  0.25515568       0.037
  -0.41666667 -0.14433757  0.25515568       0.037
  -0.25000000 -0.04811252  0.25515568       0.037
  -0.08333333  0.04811252  0.25515568       0.019
   0.25000000  0.43301270  0.25515568       0.019
   0.41666667  0.52923775  0.25515568       0.037
  -0.41666667  0.04811252  0.25515568       0.037
  -0.25000000  0.14433757  0.25515568       0.019
   0.41666667  0.72168784  0.25515568       0.019
  -0.41666667  0.24056261  0.25515568       0.019

 k-points in reciprocal lattice and weights: K-Points
   0.08333333  0.08333333  0.08333333       0.019
   0.25000000  0.08333333  0.08333333       0.037
   0.41666667  0.08333333  0.08333333       0.037
  -0.41666667  0.08333333  0.08333333       0.037
  -0.25000000  0.08333333  0.08333333       0.037
  -0.08333333  0.08333333  0.08333333       0.019
   0.25000000  0.25000000  0.08333333       0.019
   0.41666667  0.25000000  0.08333333       0.037
  -0.41666667  0.25000000  0.08333333       0.037
  -0.25000000  0.25000000  0.08333333       0.019
   0.41666667  0.41666667  0.08333333       0.019
  -0.41666667  0.41666667  0.08333333       0.019
   0.08333333  0.08333333  0.25000000       0.019
   0.25000000  0.08333333  0.25000000       0.037
   0.41666667  0.08333333  0.25000000       0.037
  -0.41666667  0.08333333  0.25000000       0.037
  -0.25000000  0.08333333  0.25000000       0.037
  -0.08333333  0.08333333  0.25000000       0.019
   0.25000000  0.25000000  0.25000000       0.019
   0.41666667  0.25000000  0.25000000       0.037
  -0.41666667  0.25000000  0.25000000       0.037
  -0.25000000  0.25000000  0.25000000       0.019
   0.41666667  0.41666667  0.25000000       0.019
  -0.41666667  0.41666667  0.25000000       0.019
   0.08333333  0.08333333  0.41666667       0.019
   0.25000000  0.08333333  0.41666667       0.037
   0.41666667  0.08333333  0.41666667       0.037
  -0.41666667  0.08333333  0.41666667       0.037
  -0.25000000  0.08333333  0.41666667       0.037
  -0.08333333  0.08333333  0.41666667       0.019
   0.25000000  0.25000000  0.41666667       0.019
   0.41666667  0.25000000  0.41666667       0.037
  -0.41666667  0.25000000  0.41666667       0.037
  -0.25000000  0.25000000  0.41666667       0.019
   0.41666667  0.41666667  0.41666667       0.019
  -0.41666667  0.41666667  0.41666667       0.019

 position of ions in fractional coordinates (direct lattice)
   0.00000000  0.00000000  0.00000000
   0.33333333  0.66666667  0.50000000

 position of ions in cartesian coordinates  (Angst):
   0.00000000  0.00000000  0.00000000
  -0.00000000  1.73205081  2.44948500

 k-point  1 :   0.0833 0.0833 0.0833  plane waves:     823
 k-point  2 :   0.2500 0.0833 0.0833  plane waves:     831
 k-point  3 :   0.4167 0.0833 0.0833  plane waves:     836
 k-point  4 :  -0.4167 0.0833 0.0833  plane waves:     828
 k-point  5 :  -0.2500 0.0833 0.0833  plane waves:     823
 k-point  6 :  -0.0833 0.0833 0.0833  plane waves:     821
 k-point  7 :   0.2500 0.2500 0.0833  plane waves:     829
 k-point  8 :   0.4167 0.2500 0.0833  plane waves:     830
 k-point  9 :  -0.4167 0.2500 0.0833  plane waves:     825
 k-point 10 :  -0.2500 0.2500 0.0833  plane waves:     827
 k-point 11 :   0.4167 0.4167 0.0833  plane waves:     835
 k-point 12 :  -0.4167 0.4167 0.0833  plane waves:     838
 k-point 13 :   0.0833 0.0833 0.2500  plane waves:     825
 k-point 14 :   0.2500 0.0833 0.2500  plane waves:     829
 k-point 15 :   0.4167 0.0833 0.2500  plane waves:     828
 k-point 16 :  -0.4167 0.0833 0.2500  plane waves:     832
 k-point 17 :  -0.2500 0.0833 0.2500  plane waves:     825
 k-point 18 :  -0.0833 0.0833 0.2500  plane waves:     822
 k-point 19 :   0.2500 0.2500 0.2500  plane waves:     827
 k-point 20 :   0.4167 0.2500 0.2500  plane waves:     831
 k-point 21 :  -0.4167 0.2500 0.2500  plane waves:     828
 k-point 22 :  -0.2500 0.2500 0.2500  plane waves:     829
 k-point 23 :   0.4167 0.4167 0.2500  plane waves:     829
 k-point 24 :  -0.4167 0.4167 0.2500  plane waves:     834
 k-point 25 :   0.0833 0.0833 0.4167  plane waves:     823
 k-point 26 :   0.2500 0.0833 0.4167  plane waves:     830
 k-point 27 :   0.4167 0.0833 0.4167  plane waves:     825
 k-point 28 :  -0.4167 0.0833 0.4167  plane waves:     834
 k-point 29 :  -0.2500 0.0833 0.4167  plane waves:     827
 k-point 30 :  -0.0833 0.0833 0.4167  plane waves:     818
 k-point 31 :   0.2500 0.2500 0.4167  plane waves:     824
 k-point 32 :   0.4167 0.2500 0.4167  plane waves:     820
 k-point 33 :  -0.4167 0.2500 0.4167  plane waves:     830
 k-point 34 :  -0.2500 0.2500 0.4167  plane waves:     823
 k-point 35 :   0.4167 0.4167 0.4167  plane waves:     820
 k-point 36 :  -0.4167 0.4167 0.4167  plane waves:     829

 maximum and minimum number of plane-waves per node :       838      818

 maximum number of plane-waves:       838
 maximum index in each direction:
   IXMAX=    5   IYMAX=    5   IZMAX=    8
   IXMIN=   -5   IYMIN=   -5   IZMIN=   -8

 NGX is ok and might be reduce to  22
 NGY is ok and might be reduce to  22
 NGZ is ok and might be reduce to  34

 serial   3D FFT for wavefunctions
 parallel 3D FFT for charge:
    minimum data exchange during FFTs selected (reduces bandwidth)

 Broyden mixing: mesh for mixing (old mesh)
   NGX = 11   NGY = 11   NGZ = 17
  (NGX  = 48   NGY  = 48   NGZ  = 72)
  gives a total of   2057 points

 initial charge density was supplied:
 charge density of overlapping atoms calculated
 number of electron       8.0000000 magnetization
 keeping initial charge density in first step

 Maximum index for augmentation-charges         4415 (set IRDMAX)

 First call to EWALD:  gamma=   0.526
 Maximum number of real-space cells 3x 3x 2
 Maximum number of reciprocal cells 3x 3x 4

 FEWALD executed in parallel

----------------------------------------- Iteration    1(   1)  ---------------------------------------

 eigenvalue-minimisations  :   576
 total energy-change (2. order) : 0.2304134E+01  (-0.3006917E+03)
 number of electron       8.0000000 magnetization
 augmentation part        8.0000000 magnetization

 Free energy of the ion-electron system (eV)
  alpha Z        PSCENC =         3.52644062
  Ewald energy   TEWEN  =      -248.97122806
  -Hartree energ DENC   =        -2.92696563
  -exchange      EXHF   =         0.00000000
  -V(xc)+E(xc)   XCENC  =       -18.95220955
  PAW double counting   =       176.24759923     -141.06103558
  entropy T*S    EENTRO =        -0.00592374
  eigenvalues    EBANDS =        28.31552921
  atomic energy  EATOM  =       206.13192747
  Solvation  Ediel_sol  =         0.00000000
  free energy    TOTEN  =         2.30413396 eV

  energy without entropy =        2.31005770  energy(sigma->0) =        2.30709583

[...]

 eigenvalue-minimisations  :   856
 total energy-change (2. order) :-0.1151254E+02  (-0.1118023E+02)
 number of electron       8.0000000 magnetization
 augmentation part        8.0000000 magnetization

[...]

 Broyden mixing:
  rms(total) = 0.21990E+00    rms(broyden)= 0.21990E+00
  rms(prec ) = 0.28260E+00
  weight for this iteration     100.00

[...]

 eigenvalues of (default mixing * dielectric matrix)
  average eigenvalue GAMMA=   2.1528
  2.1528

[...]

 average (electrostatic) potential at core
  the test charge radii are     0.9892
  (the norm of the test charge is              1.0000)
       1 -83.3254       2 -83.3254

 E-fermi :   6.7809     XC(G=0): -10.1040     alpha+bet :-12.5627

 k-point     1 :       0.0833    0.0833    0.0833
  band No.  band energies     occupation
      1      -4.7703      2.00000
      2      -0.0733      2.00000
      3       2.4737      2.00000
      4      10.0559      0.00000
      5      10.8522      0.00000
      6      13.6157      0.00000
      7      14.1739      0.00000
      8      14.2463      0.00000

[...]

 soft charge-density along one line, spin component           1
         0         1         2         3         4         5         6         7         8         9
 total charge-density along one line

------------------------ aborting loop because EDIFF is reached ----------------------------------------

  FORCE on cell =-STRESS in cart. coord.  units (eV):
  Direction    XX          YY          ZZ          XY          YZ          ZX
  Alpha Z     3.52644     3.52644     3.52644
  Ewald     -83.04726   -83.04726   -82.87688    -0.00000     0.00000     0.00000
  Hartree     0.74233     0.74233     0.75735    -0.00000    -0.00000    -0.00000
  E(xc)     -23.86509   -23.86509   -23.87001    -0.00000     0.00000    -0.00000
  Local     -15.24279   -15.24279   -15.08823    -0.00000     0.00000    -0.00000
  n-local    77.00430    77.03560    77.09192    -0.08215    -0.05552     0.06701
  augment   -13.15578   -13.15577   -13.09577     0.00000     0.00000     0.00000
  Kinetic    62.86849    39.06688    49.98336     7.59214    -0.11711    -0.25397
  Fock        0.00000     0.00000     0.00000     0.00000     0.00000     0.00000
  Total      -3.05451    -3.05451    -3.57181     0.00000    -0.00000     0.00000
  in kB    -128.16654  -128.16654  -149.87232     0.00000    -0.00000     0.00000

 VOLUME and BASIS-vectors are now :
  energy-cutoff  :      450.00
  volume of cell :       38.18
      direct lattice vectors                 reciprocal lattice vectors
     3.000000000  0.000000000  0.000000000     0.333333333  0.192450090  0.000000000
    -1.500000000  2.598076211  0.000000000     0.000000000  0.384900179  0.000000000
     0.000000000  0.000000000  4.898970000     0.000000000  0.000000000  0.204124540

[...]

 FORCES acting on ions
    electron-ion (+dipol)            ewald-force                    non-local-force                 convergence-correction
   -.614E-09 0.355E-09 0.389E-15   -.773E-13 0.583E-13 -.310E-14   -.347E-16 -.278E-16 0.000E+00   0.638E-09 -.368E-09 0.914E-14
   0.614E-09 -.355E-09 -.813E-14   0.760E-13 -.577E-13 0.310E-14   0.226E-16 0.312E-16 0.000E+00   -.638E-09 0.368E-09 -.936E-14
   0.371E-14 -.193E-13 -.774E-14   -.129E-14 0.662E-15 0.000E+00   -.121E-16 0.347E-17 0.000E+00   0.209E-15 0.161E-15 -.221E-15

 POSITION                                       TOTAL-FORCE (eV/Angst)
      0.00000      0.00000      0.00000         0.000000      0.000000      0.000000
     -0.00000      1.73205      2.44949        -0.000000      0.000000      0.000000
    total drift:                                0.000000     -0.000000     -0.000000

  FREE ENERGIE OF THE ION-ELECTRON SYSTEM (eV)
  free  energy   TOTEN  =        -9.33106563 eV

  energy  without entropy=       -9.32659019  energy(sigma->0) =       -9.32882791

[...]

 d Force = 0.0000000E+00[ 0.000E+00, 0.000E+00]  d Energy = 0.6018533E-02-0.602E-02
 d Force = 0.0000000E+00[ 0.000E+00, 0.000E+00]  d Ewald  =-0.6799858E-02 0.680E-02

 Steepest descent step on ions:
 trial-energy change:   -0.006019  1 .order   -0.006014   -0.004303   -0.007724
  (g-gl).g = 0.430E-02      g.g   = 0.430E-02  gl.gl    = 0.000E+00
 g(Force)  = 0.393E-56   g(Stress)= 0.430E-02 ortho     = 0.000E+00
 gamma     =   0.00000
 trial     =   1.00000
 opt step  =   4.00000  (harmonic =   4.00000) maximal distance =0.00000000
 next E    =    -9.375647   (d E  =  -0.04458)

[...]

 d Force = 0.0000000E+00[ 0.000E+00, 0.000E+00]  d Energy = 0.1163753E-03-0.116E-03
 d Force = 0.0000000E+00[ 0.000E+00, 0.000E+00]  d Ewald  = 0.1630088E-01-0.163E-01

 FEWALD executed in parallel

[...]

 eigenvalue-minimisations  :   736
 total energy-change (2. order) :-0.5835198E-04  (-0.1420454E-03)
 number of electron       8.0000000 magnetization
 augmentation part       -0.5137310 magnetization

[...]

 Broyden mixing:
  rms(total) = 0.13252E-02    rms(broyden)= 0.13252E-02
  rms(prec ) = 0.31709E-02
  weight for this iteration     100.00

 eigenvalues of (default mixing * dielectric matrix)
  average eigenvalue GAMMA=   2.2708
  2.2708

[...]

----------------------------------------- Iteration    5(   3)  ---------------------------------------

 eigenvalue-minimisations  :   360
 total energy-change (2. order) : 0.7010692E-05  (-0.1683984E-05)
 number of electron       8.0000000 magnetization
 augmentation part       -0.5137460 magnetization

 Free energy of the ion-electron system (eV)
  alpha Z        PSCENC =         3.52644062
  Ewald energy   TEWEN  =      -248.89333753
  -Hartree energ DENC   =        -2.28100313
  -exchange      EXHF   =         0.00000000
  -V(xc)+E(xc)   XCENC  =       -18.97548694
  PAW double counting   =       347.91560014     -312.67488818
  entropy T*S    EENTRO =        -0.00156696
  eigenvalues    EBANDS =        15.90084591
  atomic energy  EATOM  =       206.13192747
  Solvation  Ediel_sol  =         0.00000000
  free energy    TOTEN  =        -9.35146860 eV

  energy without entropy =       -9.34990164  energy(sigma->0) =       -9.35068512

 average (electrostatic) potential at core
  the test charge radii are     0.9892
  (the norm of the test charge is              1.0000)
       1 -83.3312       2 -83.3312

 E-fermi :   6.8609     XC(G=0): -10.1033     alpha+bet :-12.5627

[...]

 k-point    36 :      -0.4167    0.4167    0.4167
  band No.  band energies     occupation
      1      -0.7229      2.00000
      2       0.2736      2.00000
      3       2.9527      2.00000
      4       3.9220      2.00000
      5       9.9945      0.00000
      6      10.1577      0.00000
      7      10.8983      0.00000
      8      11.6448      0.00000

 soft charge-density along one line, spin component           1
         0         1         2         3         4         5         6         7         8         9
 total charge-density along one line

------------------------ aborting loop because EDIFF is reached ----------------------------------------

  FORCE on cell =-STRESS in cart. coord.  units (eV):
  Direction    XX          YY          ZZ          XY          YZ          ZX
  Alpha Z     3.52644     3.52644     3.52644
  Ewald     -84.52397   -84.52397   -79.84558    -0.00000     0.00000    -0.00000
  Hartree     0.57366     0.57366     1.13351    -0.00000    -0.00000    -0.00000
  E(xc)     -23.86543   -23.86543   -23.87618    -0.00000     0.00000    -0.00000
  Local     -13.51419   -13.51419   -18.65640    -0.00000    -0.00000     0.00000
  n-local    76.95025    76.72912    77.38785     0.04027    -0.09138     0.11225
  augment   -13.12081   -13.12080   -13.14883     0.00000     0.00000     0.00000
  Kinetic    62.16769    39.50137    50.23098     7.44691    -0.08041     0.68177
  Fock        0.00000     0.00000     0.00000     0.00000     0.00000     0.00000
  Total      -3.25007    -3.25007    -3.24822     0.00000     0.00000     0.00000
  in kB    -136.37221  -136.37221  -136.29435     0.00000     0.00000     0.00000

 VOLUME and BASIS-vectors are now :
  energy-cutoff  :      450.00
  volume of cell :       38.18
      direct lattice vectors                 reciprocal lattice vectors
     3.047263909  0.000000000  0.000000000     0.328163241  0.189465135  0.000000000
    -1.523631955  2.639007957 -0.000000000     0.000000000  0.378930271  0.000000000
     0.000000000 -0.000000000  4.748179770     0.000000000  0.000000000  0.210607022

  length of vectors
     3.047263909  3.047263909  4.748179770     0.378930271  0.378930271  0.210607022

 FORCES acting on ions
    electron-ion (+dipol)            ewald-force                    non-local-force                 convergence-correction
   0.271E-09 -.156E-09 0.154E-14   -.981E-13 0.695E-13 -.283E-14   -.226E-16 0.451E-16 0.000E+00   0.195E-09 -.113E-09 -.576E-15
   -.271E-09 0.156E-09 -.470E-15   0.985E-13 -.698E-13 0.283E-14   0.260E-16 -.416E-16 0.000E+00   -.195E-09 0.113E-09 0.462E-15
   -.332E-15 -.231E-13 0.108E-14   0.365E-15 -.355E-15 -.174E-17   0.347E-17 0.347E-17 0.000E+00   0.155E-15 0.342E-16 -.114E-15

 POSITION                                       TOTAL-FORCE (eV/Angst)
      0.00000      0.00000      0.00000         0.000000      0.000000     -0.000000
     -0.00000      1.75934      2.37409         0.000000     -0.000000      0.000000
    total drift:                                0.000000     -0.000000      0.000000

  FREE ENERGIE OF THE ION-ELECTRON SYSTEM (eV)
  free  energy   TOTEN  =        -9.35146860 eV

  energy  without entropy=       -9.34990164  energy(sigma->0) =       -9.35068512

 d Force = 0.0000000E+00[ 0.000E+00, 0.000E+00]  d Energy = 0.3948990E-04-0.395E-04
 d Force = 0.0000000E+00[ 0.000E+00, 0.000E+00]  d Ewald  =-0.5208699E-02 0.521E-02

 reached required accuracy - stopping structural energy minimisation
 writing wavefunctions