 vasp.5.4.1 24Jun15 (build Jul 19 2016 16:50:41) complex

 executed on           IFC91_ompi date 2019.10.17  13:11:51

 INCAR:
 POTCAR:    PAW_PBE Fe 06Sep2000
 POTCAR:    PAW_PBE Fe 06Sep2000
   VRHFIN =Fe:  d7 s1

   TITEL  = PAW_PBE Fe 06Sep2000
   POMASS =   55.847; ZVAL   =    8.000    mass and valenz
   ENMAX  =  267.882; ENMIN  =  200.911 eV

  PAW_PBE Fe 06Sep2000                  :

 POSCAR: Fe BCC
  positions in direct lattice
  velocities in cartesian coordinates
 exchange correlation table for  LEXCH =        8
   RHO(1)=    0.500       N(1)  =     2000
   RHO(2)=  100.500       N(2)  =     4000

 ion  position               nearest neighbor table
   1  0.000  0.000  0.000-

  LATTYP: Found a body centered cubic cell.
 ALAT       =     2.9000000000

  Lattice vectors:

 A1 = (  -1.4500000000,   1.4500000000,   1.4500000000)
 A2 = (   1.4500000000,  -1.4500000000,   1.4500000000)
 A3 = (   1.4500000000,   1.4500000000,  -1.4500000000)

Analysis of symmetry for initial positions (statically):
 Subroutine PRICEL returns:
 Original cell was already a primitive cell.

 Routine SETGRP: Setting up the symmetry group for a
 body centered cubic supercell.

 Subroutine GETGRP returns: Found 48 space group operations
 (whereof 48 operations were pure point group operations)
 out of a pool of 48 trial point group operations.

The static configuration has the point symmetry O_h .

Analysis of symmetry for dynamics (positions and initial velocities):
 Subroutine PRICEL returns:
 Original cell was already a primitive cell.

[...]

The dynamic configuration has the point symmetry O_h .

Analysis of structural, dynamic, and magnetic symmetry:
 Subroutine PRICEL returns:
 Original cell was already a primitive cell.

 Routine SETGRP: Setting up the symmetry group for a
 body centered cubic supercell.

 Subroutine GETGRP returns: Found 48 space group operations
 (whereof 48 operations were pure point group operations)
 out of a pool of 48 trial point group operations.

The magnetic configuration has the point symmetry O_h .

 Subroutine INISYM returns: Found 48 space group operations
 (whereof 48 operations are pure point group operations),
 and found     1 'primitive' translations

 KPOINTS: K-Points

Automatic generation of k-mesh.
Space group operators:
 irot       det(A)        alpha          n_x          n_y          n_z        tau_x        tau_y        tau_z
    1     1.000000     0.000000     1.000000     0.000000     0.000000     0.000000     0.000000     0.000000
    2    -1.000000     0.000000     1.000000     0.000000     0.000000     0.000000     0.000000     0.000000
    3     1.000000   120.000000    -0.577350    -0.577350    -0.577350     0.000000     0.000000     0.000000
    4    -1.000000   120.000000    -0.577350    -0.577350    -0.577350     0.000000     0.000000     0.000000
    5     1.000000   120.000000     0.577350     0.577350     0.577350     0.000000     0.000000     0.000000
    6    -1.000000   120.000000     0.577350     0.577350     0.577350     0.000000     0.000000     0.000000
    7     1.000000    90.000000     0.000000     0.000000    -1.000000     0.000000     0.000000     0.000000
    8    -1.000000    90.000000     0.000000     0.000000    -1.000000     0.000000     0.000000     0.000000
    9     1.000000   180.000000     0.000000     0.707107     0.707107     0.000000     0.000000     0.000000
   10    -1.000000   180.000000     0.000000     0.707107     0.707107     0.000000     0.000000     0.000000
   11     1.000000    90.000000     0.000000     1.000000     0.000000     0.000000     0.000000     0.000000
   12    -1.000000    90.000000     0.000000     1.000000     0.000000     0.000000     0.000000     0.000000
   13     1.000000   180.000000     0.000000     0.000000     1.000000     0.000000     0.000000     0.000000
   14    -1.000000   180.000000     0.000000     0.000000     1.000000     0.000000     0.000000     0.000000
   15     1.000000   120.000000    -0.577350     0.577350     0.577350     0.000000     0.000000     0.000000
   16    -1.000000   120.000000    -0.577350     0.577350     0.577350     0.000000     0.000000     0.000000
   17     1.000000   120.000000    -0.577350     0.577350    -0.577350     0.000000     0.000000     0.000000
   18    -1.000000   120.000000    -0.577350     0.577350    -0.577350     0.000000     0.000000     0.000000
   19     1.000000    90.000000     0.000000     0.000000     1.000000     0.000000     0.000000     0.000000
   20    -1.000000    90.000000     0.000000     0.000000     1.000000     0.000000     0.000000     0.000000
   21     1.000000    90.000000    -1.000000     0.000000     0.000000     0.000000     0.000000     0.000000
   22    -1.000000    90.000000    -1.000000     0.000000     0.000000     0.000000     0.000000     0.000000
   23     1.000000   180.000000     0.707107     0.000000     0.707107     0.000000     0.000000     0.000000
   24    -1.000000   180.000000     0.707107     0.000000     0.707107     0.000000     0.000000     0.000000
   25     1.000000   120.000000     0.577350    -0.577350     0.577350     0.000000     0.000000     0.000000
   26    -1.000000   120.000000     0.577350    -0.577350     0.577350     0.000000     0.000000     0.000000
   27     1.000000   120.000000    -0.577350    -0.577350     0.577350     0.000000     0.000000     0.000000
   28    -1.000000   120.000000    -0.577350    -0.577350     0.577350     0.000000     0.000000     0.000000
   29     1.000000   180.000000     1.000000     0.000000     0.000000     0.000000     0.000000     0.000000
   30    -1.000000   180.000000     1.000000     0.000000     0.000000     0.000000     0.000000     0.000000
   31     1.000000    90.000000     0.000000    -1.000000     0.000000     0.000000     0.000000     0.000000
   32    -1.000000    90.000000     0.000000    -1.000000     0.000000     0.000000     0.000000     0.000000
   33     1.000000   180.000000     0.707107     0.707107     0.000000     0.000000     0.000000     0.000000
   34    -1.000000   180.000000     0.707107     0.707107     0.000000     0.000000     0.000000     0.000000
   35     1.000000    90.000000     1.000000     0.000000     0.000000     0.000000     0.000000     0.000000
   36    -1.000000    90.000000     1.000000     0.000000     0.000000     0.000000     0.000000     0.000000
   37     1.000000   120.000000     0.577350    -0.577350    -0.577350     0.000000     0.000000     0.000000
   38    -1.000000   120.000000     0.577350    -0.577350    -0.577350     0.000000     0.000000     0.000000
   39     1.000000   180.000000     0.000000     1.000000     0.000000     0.000000     0.000000     0.000000
   40    -1.000000   180.000000     0.000000     1.000000     0.000000     0.000000     0.000000     0.000000
   41     1.000000   120.000000     0.577350     0.577350    -0.577350     0.000000     0.000000     0.000000
   42    -1.000000   120.000000     0.577350     0.577350    -0.577350     0.000000     0.000000     0.000000
   43     1.000000   180.000000     0.000000    -0.707107     0.707107     0.000000     0.000000     0.000000
   44    -1.000000   180.000000     0.000000    -0.707107     0.707107     0.000000     0.000000     0.000000
   45     1.000000   180.000000     0.707107    -0.707107     0.000000     0.000000     0.000000     0.000000
   46    -1.000000   180.000000     0.707107    -0.707107     0.000000     0.000000     0.000000     0.000000
   47     1.000000   180.000000     0.707107     0.000000    -0.707107     0.000000     0.000000     0.000000
   48    -1.000000   180.000000     0.707107     0.000000    -0.707107     0.000000     0.000000     0.000000

 Subroutine IBZKPT returns following result:

 Found     26 irreducible k-points:

 Following reciprocal coordinates:
            Coordinates               Weight
  0.062500  0.062500  0.062500      8.000000
  0.187500  0.062500  0.062500     24.000000
  0.312500  0.062500  0.062500     24.000000
  0.437500  0.062500  0.062500     12.000000
 -0.062500  0.062500  0.062500      6.000000
  0.187500  0.187500  0.062500     24.000000
  0.312500  0.187500  0.062500     48.000000
 -0.187500  0.187500  0.062500     24.000000
  0.312500  0.312500  0.062500      8.000000
 -0.312500  0.312500  0.062500     24.000000
 -0.187500  0.312500  0.062500     24.000000
 -0.437500  0.437500  0.062500     24.000000
 -0.312500  0.437500  0.062500     48.000000
 -0.437500 -0.437500  0.062500     24.000000
 -0.312500 -0.437500  0.062500     24.000000
  0.187500  0.187500  0.187500      8.000000
  0.312500  0.187500  0.187500     12.000000
 -0.187500  0.187500  0.187500      6.000000
 -0.312500  0.312500  0.187500     24.000000
 -0.437500  0.437500  0.187500     24.000000
 -0.312500  0.437500  0.187500     24.000000
 -0.437500 -0.437500  0.187500     24.000000
 -0.312500  0.312500  0.312500      6.000000
 -0.437500  0.437500  0.312500     24.000000
 -0.437500 -0.437500  0.312500      8.000000
 -0.437500  0.437500  0.437500      6.000000

 Following cartesian coordinates:
            Coordinates               Weight
  0.125000  0.125000  0.125000      8.000000
  0.125000  0.250000  0.250000     24.000000
  0.125000  0.375000  0.375000     24.000000
  0.125000  0.500000  0.500000     12.000000
  0.125000  0.000000  0.000000      6.000000
  0.250000  0.250000  0.375000     24.000000
  0.250000  0.375000  0.500000     48.000000
  0.250000 -0.125000  0.000000     24.000000
  0.375000  0.375000  0.625000      8.000000
  0.375000 -0.250000  0.000000     24.000000
  0.375000 -0.125000  0.125000     24.000000
  0.500000 -0.375000  0.000000     24.000000
  0.500000 -0.250000  0.125000     48.000000
 -0.375000 -0.375000 -0.875000     24.000000
 -0.375000 -0.250000 -0.750000     24.000000
  0.375000  0.375000  0.375000      8.000000
  0.375000  0.500000  0.500000     12.000000
  0.375000  0.000000  0.000000      6.000000
  0.500000 -0.125000  0.000000     24.000000
  0.625000 -0.250000  0.000000     24.000000
  0.625000 -0.125000  0.125000     24.000000
 -0.250000 -0.250000 -0.875000     24.000000
  0.625000  0.000000  0.000000      6.000000
  0.750000 -0.125000  0.000000     24.000000
 -0.125000 -0.125000 -0.875000      8.000000
  0.875000  0.000000  0.000000      6.000000

 TETIRR: Found    534 inequivalent tetrahedra from     3072

 I would recommend the setting:
   dimension x,y,z NGX =    16 NGY =   16 NGZ =   16
 SYSTEM =  Fe FCC
 POSCAR =  Fe BCC

 Startparameter for this run:
   NWRITE =      2    write-flag & timer
   PREC   = accura    normal or accurate (medium, high low for compatibility)
   ISTART =      0    job   : 0-new  1-cont  2-samecut
   ICHARG =      2    charge: 1-file 2-atom 10-const
   ISPIN  =      2    spin polarized calculation?
   LNONCOLLINEAR =      F non collinear calculations
   LSORBIT =      F    spin-orbit coupling
   INIWAV =      1    electr: 0-lowe 1-rand  2-diag
   LASPH  =      F    aspherical Exc in radial PAW
   METAGGA=      F    non-selfconsistent MetaGGA calc.

 Electronic Relaxation 1
   ENCUT  =  400.0 eV  29.40 Ry    5.42 a.u.   4.10  4.10  4.10*2*pi/ulx,y,z
   ENINI  =  400.0     initial cutoff
   ENAUG  =  511.4 eV  augmentation charge cutoff
[...]
     AMIN     =   0.10
     WC   =   100.;   INIMIX=   1;  MIXPRE=   1;  MAXMIX= -45

 Intra band minimization:
   WEIMIN = 0.0000     energy-eigenvalue tresh-hold
   EBREAK =  0.21E-07  absolut break condition
   DEPER  =   0.30     relativ break condition

   TIME   =   0.40     timestep for ELM

  volume/ion in A,a.u.               =      12.19        82.29
  Fermi-wavevector in a.u.,A,eV,Ry     =   1.422493  2.688122 27.531206  2.023487
  Thomas-Fermi vector in A             =   2.543191

 Write flags
   LWAVE  =      T    write WAVECAR
   LCHARG =      T    write CHGCAR
   LVTOT  =      F    write LOCPOT, total local potential
   LVHAR  =      F    write LOCPOT, Hartree potential only
   LELF   =      F    write electronic localiz. function (ELF)
   LORBIT =     11    0 simple, 1 ext, 2 COOP (PROOUT)

 Dipole corrections
   LMONO  =      F    monopole corrections only (constant potential shift)
   LDIPOL =      F    correct potential (dipole corrections)
   IDIPOL =      0    1-x, 2-y, 3-z, 4-all directions
   EPSILON=  1.0000000 bulk dielectric constant

 Exchange correlation treatment:
   GGA     =    --    GGA type
   VOSKOWN=      0    Vosko Wilk Nusair interpolation
   LHFCALC =     F    Hartree Fock is set to
   LHFONE  =     F    Hartree Fock one center treatment
   AEXX    =    0.0000 exact exchange contribution

 Linear response parameters
   LEPSILON=     F    determine dielectric tensor
   LRPA    =     F    only Hartree local field effects (RPA)
   LNABLA  =     F    use nabla operator in PAW spheres
   LVEL    =     F    velocity operator in full k-point grid
   LINTERFAST=   F  fast interpolation
   KINTER  =     0    interpolate to denser k-point grid
   CSHIFT  =0.1000    complex shift for real part using Kramers Kronig
   OMEGAMAX=  -1.0    maximum frequency
   DEG_THRESHOLD= 0.2000000E-02 threshold for treating states as degnerate
   RTIME   =    0.100 relaxation time in fs

 Orbital magnetization related:
   ORBITALMAG=     F  switch on orbital magnetization
   LCHIMAG   =     F  perturbation theory with respect to B field
   DQ        =  0.001000  dq finite difference perturbation B field

 Static calculation
 charge density and potential will be updated during run
 spin polarized calculation
 Variant of blocked Davidson
 Davidson routine will perform the subspace rotation
 perform sub-space diagonalisation
    after iterative eigenvector-optimisation
 modified Broyden-mixing scheme, WC =      100.0
 initial mixing is a Kerker type mixing with AMIX =  0.4000 and BMIX =      1.0000
 Hartree-type preconditioning will be used
 using additional bands            8
 reciprocal scheme for non local part
 use partial core corrections
 calculate Harris-corrections to forces
   (improved forces if not selfconsistent)
 use gradient corrections
 use of overlap-Matrix (Vanderbilt PP)
 Fermi weights with tetrahedron method with Bloechl corrections

  energy-cutoff  :      400.00
  volume of cell :       12.19
      direct lattice vectors                 reciprocal lattice vectors
    -1.450000000  1.450000000  1.450000000     0.000000000  0.344827586  0.344827586
     1.450000000 -1.450000000  1.450000000     0.344827586  0.000000000  0.344827586
     1.450000000  1.450000000 -1.450000000     0.344827586  0.344827586  0.000000000

  length of vectors
     2.511473671  2.511473671  2.511473671     0.487659849  0.487659849  0.487659849

 k-points in units of 2pi/SCALE and weight: K-Points
   0.12500000  0.12500000  0.12500000       0.016
   0.12500000  0.25000000  0.25000000       0.047
   0.12500000  0.37500000  0.37500000       0.047
   0.12500000  0.50000000  0.50000000       0.023
   0.12500000  0.00000000  0.00000000       0.012
   0.25000000  0.25000000  0.37500000       0.047
   0.25000000  0.37500000  0.50000000       0.094
   0.25000000 -0.12500000  0.00000000       0.047
   0.37500000  0.37500000  0.62500000       0.016
   0.37500000 -0.25000000  0.00000000       0.047
   0.37500000 -0.12500000  0.12500000       0.047
   0.50000000 -0.37500000  0.00000000       0.047
   0.50000000 -0.25000000  0.12500000       0.094
  -0.37500000 -0.37500000 -0.87500000       0.047
  -0.37500000 -0.25000000 -0.75000000       0.047
   0.37500000  0.37500000  0.37500000       0.016
   0.37500000  0.50000000  0.50000000       0.023
   0.37500000  0.00000000  0.00000000       0.012
   0.50000000 -0.12500000  0.00000000       0.047
   0.62500000 -0.25000000  0.00000000       0.047
   0.62500000 -0.12500000  0.12500000       0.047
  -0.25000000 -0.25000000 -0.87500000       0.047
   0.62500000  0.00000000  0.00000000       0.012
   0.75000000 -0.12500000  0.00000000       0.047
  -0.12500000 -0.12500000 -0.87500000       0.016
   0.87500000  0.00000000  0.00000000       0.012

 k-points in reciprocal lattice and weights: K-Points
   0.06250000  0.06250000  0.06250000       0.016
   0.18750000  0.06250000  0.06250000       0.047
   0.31250000  0.06250000  0.06250000       0.047
   0.43750000  0.06250000  0.06250000       0.023
  -0.06250000  0.06250000  0.06250000       0.012
   0.18750000  0.18750000  0.06250000       0.047
   0.31250000  0.18750000  0.06250000       0.094
  -0.18750000  0.18750000  0.06250000       0.047
   0.31250000  0.31250000  0.06250000       0.016
  -0.31250000  0.31250000  0.06250000       0.047
  -0.18750000  0.31250000  0.06250000       0.047
  -0.43750000  0.43750000  0.06250000       0.047
  -0.31250000  0.43750000  0.06250000       0.094
  -0.43750000 -0.43750000  0.06250000       0.047
  -0.31250000 -0.43750000  0.06250000       0.047
   0.18750000  0.18750000  0.18750000       0.016
   0.31250000  0.18750000  0.18750000       0.023
  -0.18750000  0.18750000  0.18750000       0.012
  -0.31250000  0.31250000  0.18750000       0.047
  -0.43750000  0.43750000  0.18750000       0.047
  -0.31250000  0.43750000  0.18750000       0.047
  -0.43750000 -0.43750000  0.18750000       0.047
  -0.31250000  0.31250000  0.31250000       0.012
  -0.43750000  0.43750000  0.31250000       0.047
  -0.43750000 -0.43750000  0.31250000       0.016
  -0.43750000  0.43750000  0.43750000       0.012

 position of ions in fractional coordinates (direct lattice)
   0.00000000  0.00000000  0.00000000

 position of ions in cartesian coordinates  (Angst):
   0.00000000  0.00000000  0.00000000

 k-point  1 :   0.0625 0.0625 0.0625  plane waves:     216
 k-point  2 :   0.1875 0.0625 0.0625  plane waves:     214
 k-point  3 :   0.3125 0.0625 0.0625  plane waves:     226
 k-point  4 :   0.4375 0.0625 0.0625  plane waves:     222
 k-point  5 :  -0.0625 0.0625 0.0625  plane waves:     213
 k-point  6 :   0.1875 0.1875 0.0625  plane waves:     224
 k-point  7 :   0.3125 0.1875 0.0625  plane waves:     221
 k-point  8 :  -0.1875 0.1875 0.0625  plane waves:     218
 k-point  9 :   0.3125 0.3125 0.0625  plane waves:     222
 k-point 10 :  -0.3125 0.3125 0.0625  plane waves:     224
 k-point 11 :  -0.1875 0.3125 0.0625  plane waves:     220
 k-point 12 :  -0.4375 0.4375 0.0625  plane waves:     218
 k-point 13 :  -0.3125 0.4375 0.0625  plane waves:     223
 k-point 14 :  -0.4375-0.4375 0.0625  plane waves:     219
 k-point 15 :  -0.3125-0.4375 0.0625  plane waves:     221
 k-point 16 :   0.1875 0.1875 0.1875  plane waves:     228
 k-point 17 :   0.3125 0.1875 0.1875  plane waves:     220
 k-point 18 :  -0.1875 0.1875 0.1875  plane waves:     213
 k-point 19 :  -0.3125 0.3125 0.1875  plane waves:     224
 k-point 20 :  -0.4375 0.4375 0.1875  plane waves:     221
 k-point 21 :  -0.3125 0.4375 0.1875  plane waves:     223
 k-point 22 :  -0.4375-0.4375 0.1875  plane waves:     221
 k-point 23 :  -0.3125 0.3125 0.3125  plane waves:     225
 k-point 24 :  -0.4375 0.4375 0.3125  plane waves:     225
 k-point 25 :  -0.4375-0.4375 0.3125  plane waves:     230
 k-point 26 :  -0.4375 0.4375 0.4375  plane waves:     236

 maximum and minimum number of plane-waves per node :       236      213

 maximum number of plane-waves:       236
 maximum index in each direction:
   IXMAX=    4   IYMAX=    4   IZMAX=    4
   IXMIN=   -4   IYMIN=   -4   IZMIN=   -4

 WARNING: aliasing errors must be expected set NGX to  18 to avoid them
 WARNING: aliasing errors must be expected set NGY to  18 to avoid them
 WARNING: aliasing errors must be expected set NGZ to  18 to avoid them
 aliasing errors are usually negligible using standard VASP settings
 and one can safely disregard these warnings

 serial   3D FFT for wavefunctions
 parallel 3D FFT for charge:
    minimum data exchange during FFTs selected (reduces bandwidth)

 Broyden mixing: mesh for mixing (old mesh)
   NGX =  9   NGY =  9   NGZ =  9
  (NGX  = 32   NGY  = 32   NGZ  = 32)
  gives a total of    729 points

 initial charge density was supplied:
 charge density of overlapping atoms calculated
 number of electron       8.0000000 magnetization       4.0000000
 keeping initial charge density in first step

 Maximum index for augmentation-charges         2879 (set IRDMAX)

 First call to EWALD:  gamma=   0.770
 Maximum number of real-space cells 3x 3x 3
 Maximum number of reciprocal cells 3x 3x 3

 FEWALD executed in parallel

----------------------------------------- Iteration    1(   1)  ---------------------------------------

 BZINTS: Fermi energy: 12.917486;  8.000000 electrons
         Band energy:  63.004017;  BLOECHL correction: -0.468903

 eigenvalue-minimisations  :  1400
 total energy-change (2. order) : 0.1677733E+02  (-0.3705418E+03)
 number of electron       8.0000000 magnetization       4.0000000
 augmentation part        8.0000000 magnetization       4.0000000

 Free energy of the ion-electron system (eV)
  alpha Z        PSCENC =        56.67618681
  Ewald energy   TEWEN  =      -578.25309922
  -Hartree energ DENC   =      -116.99538689
  -exchange      EXHF   =         0.00000000
  -V(xc)+E(xc)   XCENC  =         5.79509176
  PAW double counting   =       552.89180568     -560.64780826
  entropy T*S    EENTRO =         0.00000000
  eigenvalues    EBANDS =        63.00401749
  atomic energy  EATOM  =       594.30652615
  Solvation  Ediel_sol  =         0.00000000
  free energy    TOTEN  =        16.77733351 eV

  energy without entropy =       16.77733351  energy(sigma->0) =       16.77733351

[...]

 eigenvalue-minimisations  :  1296
 total energy-change (2. order) :-0.2486718E+02  (-0.2264383E+02)
 number of electron       8.0000000 magnetization       4.0000000
 augmentation part        8.0000000 magnetization       4.0000000

[...]

 Broyden mixing:
  rms(total) = 0.11475E+01    rms(broyden)= 0.11474E+01
  rms(prec ) = 0.32863E+01
  weight for this iteration     100.00

[...]

 eigenvalues of (default mixing * dielectric matrix)
  average eigenvalue GAMMA=   0.6728
  0.6728

[...]

 eigenvalue-minimisations  :  1384
 total energy-change (2. order) :-0.1242125E-03  (-0.1215108E-03)
 number of electron       7.9999983 magnetization       2.2908951
 augmentation part        4.1622505 magnetization       1.9092141

[...]

 Broyden mixing:
  rms(total) = 0.10755E-02    rms(broyden)= 0.10754E-02
  rms(prec ) = 0.11818E-02
  weight for this iteration     100.00

 eigenvalues of (default mixing * dielectric matrix)
  average eigenvalue GAMMA=   1.2737
  2.6011  2.6011  1.0529  0.7797  0.6563  0.6563  0.5687

[...]

----------------------------------------- Iteration    1(  13)  ---------------------------------------

[...]

 eigenvalue-minimisations  :   716
 total energy-change (2. order) : 0.6409537E-06  (-0.9250781E-07)
 number of electron       7.9999983 magnetization       2.2874453
 augmentation part        4.1629609 magnetization       1.9060500

 Free energy of the ion-electron system (eV)
  alpha Z        PSCENC =        56.67618681
  Ewald energy   TEWEN  =      -578.25309922
  -Hartree energ DENC   =      -100.69519859
  -exchange      EXHF   =         0.00000000
  -V(xc)+E(xc)   XCENC  =         4.25082359
  PAW double counting   =       691.33409582     -700.19659075
  entropy T*S    EENTRO =         0.00000000
  eigenvalues    EBANDS =        24.36915502
  atomic energy  EATOM  =       594.30652615
  Solvation  Ediel_sol  =         0.00000000
  free energy    TOTEN  =        -8.20810118 eV

  energy without entropy =       -8.20810118  energy(sigma->0) =       -8.20810118

 average (electrostatic) potential at core
  the test charge radii are     1.0103
  (the norm of the test charge is              1.0000)
       1 -43.9196

 E-fermi :   5.0104     XC(G=0): -12.7168     alpha+bet :-12.7110

 spin component 1

 k-point     1 :       0.0625    0.0625    0.0625
  band No.  band energies     occupation
      1      -1.9800      1.00000
      2       2.7386      1.00000
      3       2.7386      1.00000
      4       3.4610      1.00000
      5       3.9921      1.00000
      6       3.9921      1.00335
      7      25.7465      0.00000
      8      25.7465      0.00000
      9      29.0516      0.00000
     10      30.3216      0.00000
     11      34.7548      0.00000
     12      34.7548      0.00000

[...]

 spin component 2

[...]

 k-point    26 :      -0.4375    0.4375    0.4375
  band No.  band energies     occupation
      1       2.6422      1.00000
      2       2.7069      1.00000
      3       7.1496     -0.00316
      4       7.1496      0.00000
      5       7.3652      0.00000
      6      13.2151      0.00000
      7      15.4553      0.00000
      8      15.4553      0.00000
      9      21.0998      0.00000
     10      22.0516      0.00000
     11      26.5336      0.00000
     12      42.5401      0.00000

 soft charge-density along one line, spin component           1
         0         1         2         3         4         5         6         7         8         9
 total charge-density along one line

 soft charge-density along one line, spin component           2
         0         1         2         3         4         5         6         7         8         9
 total charge-density along one line

------------------------ aborting loop because EDIFF is reached ----------------------------------------

 total charge

# of ion     s       p       d       tot
  1        0.455   0.479   6.196   7.131

 magnetization (x)

[...]

  FORCE on cell =-STRESS in cart. coord.  units (eV):
  Direction    XX          YY          ZZ          XY          YZ          ZX
  Alpha Z    56.67619    56.67619    56.67619
  Ewald    -192.75103  -192.75103  -192.75103    -0.00000     0.00000    -0.00000
  Hartree    33.56605    33.56605    33.56605    -0.00000    -0.00000    -0.00000
  E(xc)     -39.55255   -39.55255   -39.55255    -0.00000    -0.00000    -0.00000
  Local      56.97207    56.97207    56.97207    -0.00002    -0.00002    -0.00002
  n-local   -27.69387   -26.56924   -25.75540     1.11832    -0.67695    -1.29160
  augment    38.84760    38.84760    38.84760     0.00002     0.00002     0.00002
  Kinetic    72.59072    71.87441    71.58597    -2.41706     1.81987     1.17848
  Fock        0.00000     0.00000     0.00000     0.00000     0.00000     0.00000
  Total      -0.89746    -0.89746    -0.89746     0.00000     0.00000     0.00000
  in kB    -117.91359  -117.91359  -117.91359     0.00000     0.00000     0.00000

 VOLUME and BASIS-vectors are now :
  energy-cutoff  :      400.00
  volume of cell :       12.19
      direct lattice vectors                 reciprocal lattice vectors
    -1.450000000  1.450000000  1.450000000     0.000000000  0.344827586  0.344827586
     1.450000000 -1.450000000  1.450000000     0.344827586  0.000000000  0.344827586
     1.450000000  1.450000000 -1.450000000     0.344827586  0.344827586  0.000000000

  length of vectors
     2.511473671  2.511473671  2.511473671     0.487659849  0.487659849  0.487659849

 FORCES acting on ions
    electron-ion (+dipol)            ewald-force                    non-local-force                 convergence-correction
   0.301E-14 0.488E-14 -.469E-14   -.403E-15 0.104E-14 0.204E-14   -.114E-22 0.186E-23 0.246E-22   0.919E-14 0.575E-14 0.428E-15
   0.301E-14 0.488E-14 -.469E-14   -.403E-15 0.104E-14 0.204E-14   -.114E-22 0.186E-23 0.246E-22   0.919E-14 0.575E-14 0.428E-15

 POSITION                                       TOTAL-FORCE (eV/Angst)
      0.00000      0.00000      0.00000         0.000000      0.000000     -0.000000
    total drift:                                0.000000      0.000000     -0.000000

  FREE ENERGIE OF THE ION-ELECTRON SYSTEM (eV)
  free  energy   TOTEN  =        -8.20810118 eV

  energy  without entropy=       -8.20810118  energy(sigma->0) =       -8.20810118

 writing wavefunctions

 total charge

[...]

 magnetization (x)

# of ion     s       p       d       tot
  1       -0.018  -0.069   2.396   2.308

 BZINTS: Fermi energy:  5.010360;  8.000000 electrons
         Band energy:  24.369155;  BLOECHL correction: -0.063444