 vasp.5.4.1 24Jun15 (build Jul 19 2016 16:50:41) complex

 executed on           IFC91_ompi date 2019.10.10  11:14:52

 INCAR:
 POTCAR:    PAW_PBE Si 05Jan2001
 POTCAR:    PAW_PBE Si 05Jan2001
   VRHFIN = Si: s2p2

   TITEL  = PAW_PBE Si 05Jan2001
   POMASS =   28.085; ZVAL   =    4.000    mass and valenz
   ENMAX  =  245.345; ENMIN  =  184.009 eV

  PAW_PBE Si 05Jan2001                  :

 POSCAR: Si HCP
  positions in direct lattice
 exchange correlation table for  LEXCH =        8
   RHO(1)=    0.500       N(1)  =     2000
   RHO(2)=  100.500       N(2)  =     4000

 ion  position               nearest neighbor table
   1  0.000  0.000  0.000-   2 2.65   2 2.65   2 2.65   2 2.65   2 2.65   2 2.65
   2  0.333  0.667  0.500-   1 2.65   1 2.65   1 2.65   1 2.65   1 2.65   1 2.65

  LATTYP: Found a hexagonal cell.
 ALAT       =     2.6500000000
 C/A-ratio  =     1.6329900000

  Lattice vectors:

 A1 = (   2.6500000000,   0.0000000000,   0.0000000000)
 A2 = (  -1.3250000000,   2.2949673200,   0.0000000000)
 A3 = (   0.0000000000,   0.0000000000,   4.3274235000)

Analysis of symmetry for initial positions (statically):
 Subroutine PRICEL returns:
 Original cell was already a primitive cell.

 Routine SETGRP: Setting up the symmetry group for a
 hexagonal supercell.

 Subroutine GETGRP returns: Found 24 space group operations
 (whereof 12 operations were pure point group operations)
 out of a pool of 24 trial point group operations.

The static configuration has the point symmetry D_3h.
 The point group associated with its full space group is D_6h.

Analysis of symmetry for dynamics (positions and initial velocities):
 Subroutine PRICEL returns:
 Original cell was already a primitive cell.

 Routine SETGRP: Setting up the symmetry group for a
 hexagonal supercell.

 Subroutine GETGRP returns: Found 24 space group operations
 (whereof 12 operations were pure point group operations)
 out of a pool of 24 trial point group operations.

The dynamic configuration has the point symmetry D_3h.
 The point group associated with its full space group is D_6h.

 Subroutine INISYM returns: Found 24 space group operations
 (whereof 12 operations are pure point group operations),
 and found     1 'primitive' translations

 KPOINTS: K-Points

Automatic generation of k-mesh.
Space group operators:
 irot       det(A)        alpha          n_x          n_y          n_z        tau_x        tau_y        tau_z
    1     1.000000     0.000000     1.000000     0.000000     0.000000     0.000000     0.000000     0.000000
    2    -1.000000    60.000000     0.000000     0.000000    -1.000000     0.000000     0.000000     0.000000
    3     1.000000   120.000000     0.000000     0.000000    -1.000000     0.000000     0.000000     0.000000
    4    -1.000000   179.999999     0.000000     0.000000     1.000000     0.000000     0.000000     0.000000
    5     1.000000   120.000000     0.000000     0.000000     1.000000     0.000000     0.000000     0.000000
    6    -1.000000    60.000000     0.000000     0.000000     1.000000     0.000000     0.000000     0.000000
    7    -1.000000   180.000000     1.000000     0.000000     0.000000     0.000000     0.000000     0.000000
    8     1.000000   180.000000     0.866025    -0.500000     0.000000     0.000000     0.000000     0.000000
    9    -1.000000   180.000000     0.500000    -0.866025     0.000000     0.000000     0.000000     0.000000
   10     1.000000   180.000000     0.000000     1.000000     0.000000     0.000000     0.000000     0.000000
   11    -1.000000   180.000000    -0.500000    -0.866025     0.000000     0.000000     0.000000     0.000000
   12     1.000000   180.000000     0.866025     0.500000     0.000000     0.000000     0.000000     0.000000
   13    -1.000000     0.000000     1.000000     0.000000     0.000000     0.333333     0.666667     0.500000
   14     1.000000    60.000000     0.000000     0.000000    -1.000000     0.333333     0.666667     0.500000
   15    -1.000000   120.000000     0.000000     0.000000    -1.000000     0.333333     0.666667     0.500000
   16     1.000000   179.999999     0.000000     0.000000     1.000000     0.333333     0.666667     0.500000
   17    -1.000000   120.000000     0.000000     0.000000     1.000000     0.333333     0.666667     0.500000
   18     1.000000    60.000000     0.000000     0.000000     1.000000     0.333333     0.666667     0.500000
   19     1.000000   180.000000     1.000000     0.000000     0.000000     0.333333     0.666667     0.500000
   20    -1.000000   180.000000     0.866025    -0.500000     0.000000     0.333333     0.666667     0.500000
   21     1.000000   180.000000     0.500000    -0.866025     0.000000     0.333333     0.666667     0.500000
   22    -1.000000   180.000000     0.000000     1.000000     0.000000     0.333333     0.666667     0.500000
   23     1.000000   180.000000    -0.500000    -0.866025     0.000000     0.333333     0.666667     0.500000
   24    -1.000000   180.000000     0.866025     0.500000     0.000000     0.333333     0.666667     0.500000

 Subroutine IBZKPT returns following result:

 Found     36 irreducible k-points:

 Following reciprocal coordinates:
            Coordinates               Weight
  0.083333  0.083333  0.083333     96.000000
  0.250000  0.083333  0.083333    192.000000
  0.416667  0.083333  0.083333    192.000000
 -0.416667  0.083333  0.083333    192.000000
 -0.250000  0.083333  0.083333    192.000000
 -0.083333  0.083333  0.083333     96.000000
  0.250000  0.250000  0.083333     96.000000
  0.416667  0.250000  0.083333    192.000000
 -0.416667  0.250000  0.083333    192.000000
 -0.250000  0.250000  0.083333     96.000000
  0.416667  0.416667  0.083333     96.000000
 -0.416667  0.416667  0.083333     96.000000
  0.083333  0.083333  0.250000     96.000000
  0.250000  0.083333  0.250000    192.000000
  0.416667  0.083333  0.250000    192.000000
 -0.416667  0.083333  0.250000    192.000000
 -0.250000  0.083333  0.250000    192.000000
 -0.083333  0.083333  0.250000     96.000000
  0.250000  0.250000  0.250000     96.000000
  0.416667  0.250000  0.250000    192.000000
 -0.416667  0.250000  0.250000    192.000000
 -0.250000  0.250000  0.250000     96.000000
  0.416667  0.416667  0.250000     96.000000
 -0.416667  0.416667  0.250000     96.000000
  0.083333  0.083333  0.416667     96.000000
  0.250000  0.083333  0.416667    192.000000
  0.416667  0.083333  0.416667    192.000000
 -0.416667  0.083333  0.416667    192.000000
 -0.250000  0.083333  0.416667    192.000000
 -0.083333  0.083333  0.416667     96.000000
  0.250000  0.250000  0.416667     96.000000
  0.416667  0.250000  0.416667    192.000000
 -0.416667  0.250000  0.416667    192.000000
 -0.250000  0.250000  0.416667     96.000000
  0.416667  0.416667  0.416667     96.000000
 -0.416667  0.416667  0.416667     96.000000

 Following cartesian coordinates:
            Coordinates               Weight
  0.083333  0.144338  0.051031     96.000000
  0.250000  0.240563  0.051031    192.000000
  0.416667  0.336788  0.051031    192.000000
 -0.416667 -0.144338  0.051031    192.000000
 -0.250000 -0.048113  0.051031    192.000000
 -0.083333  0.048113  0.051031     96.000000
  0.250000  0.433013  0.051031     96.000000
  0.416667  0.529238  0.051031    192.000000
 -0.416667  0.048113  0.051031    192.000000
 -0.250000  0.144338  0.051031     96.000000
  0.416667  0.721688  0.051031     96.000000
 -0.416667  0.240563  0.051031     96.000000
  0.083333  0.144338  0.153093     96.000000
  0.250000  0.240563  0.153093    192.000000
  0.416667  0.336788  0.153093    192.000000
 -0.416667 -0.144338  0.153093    192.000000
 -0.250000 -0.048113  0.153093    192.000000
 -0.083333  0.048113  0.153093     96.000000
  0.250000  0.433013  0.153093     96.000000
  0.416667  0.529238  0.153093    192.000000
 -0.416667  0.048113  0.153093    192.000000
 -0.250000  0.144338  0.153093     96.000000
  0.416667  0.721688  0.153093     96.000000
 -0.416667  0.240563  0.153093     96.000000
  0.083333  0.144338  0.255156     96.000000
  0.250000  0.240563  0.255156    192.000000
  0.416667  0.336788  0.255156    192.000000
 -0.416667 -0.144338  0.255156    192.000000
 -0.250000 -0.048113  0.255156    192.000000
 -0.083333  0.048113  0.255156     96.000000
  0.250000  0.433013  0.255156     96.000000
  0.416667  0.529238  0.255156    192.000000
 -0.416667  0.048113  0.255156    192.000000
 -0.250000  0.144338  0.255156     96.000000
  0.416667  0.721688  0.255156     96.000000
 -0.416667  0.240563  0.255156     96.000000

 I would recommend the setting:
   dimension x,y,z NGX =    18 NGY =   18 NGZ =   30
 SYSTEM =  Si beta-tin
 POSCAR =  Si HCP

 Startparameter for this run:
   NWRITE =      2    write-flag & timer
   PREC   = accura    normal or accurate (medium, high low for compatibility)
   ISTART =      0    job   : 0-new  1-cont  2-samecut
   ICHARG =      2    charge: 1-file 2-atom 10-const
   ISPIN  =      1    spin polarized calculation?
   LNONCOLLINEAR =      F non collinear calculations
   LSORBIT =      F    spin-orbit coupling
   INIWAV =      1    electr: 0-lowe 1-rand  2-diag
   LASPH  =      F    aspherical Exc in radial PAW
   METAGGA=      F    non-selfconsistent MetaGGA calc.

 Electronic Relaxation 1
   ENCUT  =  450.0 eV  33.07 Ry    5.75 a.u.   4.58  4.58  7.49*2*pi/ulx,y,z
   ENINI  =  450.0     initial cutoff
   ENAUG  =  322.1 eV  augmentation charge cutoff
   NELM   =     60;   NELMIN=  2; NELMDL= -5     # of ELM steps
   EDIFF  = 0.1E-04   stopping-criterion for ELM
   LREAL  =      F    real-space projection
   NLSPLINE    = F    spline interpolate recip. space projectors
   LCOMPAT=      F    compatible to vasp.4.4
   GGA_COMPAT  = T    GGA compatible to vasp.4.4-vasp.4.6
   LMAXPAW     = -100 max onsite density
   LMAXMIX     =    2 max onsite mixed and CHGCAR
   VOSKOWN=      0    Vosko Wilk Nusair interpolation
   ROPT   =    0.00000
 Ionic relaxation
   EDIFFG = -.1E-01   stopping-criterion for IOM
   NSW    =    100    number of steps for IOM
   NBLOCK =      1;   KBLOCK =    100    inner block; outer block
   IBRION =      2    ionic relax: 0-MD 1-quasi-New 2-CG
   NFREE  =      1    steps in history (QN), initial steepest desc. (CG)
   ISIF   =      4    stress and relaxation
   IWAVPR =     11    prediction:  0-non 1-charg 2-wave 3-comb
   ISYM   =      2    0-nonsym 1-usesym 2-fastsym
   LCORR  =      T    Harris-Foulkes like correction to forces

   POTIM  = 0.5000    time-step for ionic-motion
   TEIN   =    0.0    initial temperature
   TEBEG  =    0.0;   TEEND  =   0.0 temperature during run
   SMASS  =  -3.00    Nose mass-parameter (am)
   estimated Nose-frequenzy (Omega)   =  0.10E-29 period in steps =****** mass=  -0.160E-27a.u.
   SCALEE = 1.0000    scale energy and forces
   NPACO  =    256;   APACO  = 16.0  distance and # of slots for P.C.
   PSTRESS=    0.0 pullay stress

  Mass of Ions in am
   POMASS =  28.09
  Ionic Valenz
   ZVAL   =   4.00
  Atomic Wigner-Seitz radii
  virtual crystal weights
   VCA    =   1.00
   NELECT =       8.0000    total number of electrons
   NUPDOWN=      -1.0000    fix difference up-down

 DOS related values:
[...]
  -0.08333333  0.04811252  0.25515568       0.019
   0.25000000  0.43301270  0.25515568       0.019
   0.41666667  0.52923775  0.25515568       0.037
  -0.41666667  0.04811252  0.25515568       0.037
  -0.25000000  0.14433757  0.25515568       0.019
   0.41666667  0.72168784  0.25515568       0.019
  -0.41666667  0.24056261  0.25515568       0.019

 k-points in reciprocal lattice and weights: K-Points
   0.08333333  0.08333333  0.08333333       0.019
   0.25000000  0.08333333  0.08333333       0.037
   0.41666667  0.08333333  0.08333333       0.037
  -0.41666667  0.08333333  0.08333333       0.037
  -0.25000000  0.08333333  0.08333333       0.037
  -0.08333333  0.08333333  0.08333333       0.019
   0.25000000  0.25000000  0.08333333       0.019
   0.41666667  0.25000000  0.08333333       0.037
  -0.41666667  0.25000000  0.08333333       0.037
  -0.25000000  0.25000000  0.08333333       0.019
   0.41666667  0.41666667  0.08333333       0.019
  -0.41666667  0.41666667  0.08333333       0.019
   0.08333333  0.08333333  0.25000000       0.019
   0.25000000  0.08333333  0.25000000       0.037
   0.41666667  0.08333333  0.25000000       0.037
  -0.41666667  0.08333333  0.25000000       0.037
  -0.25000000  0.08333333  0.25000000       0.037
  -0.08333333  0.08333333  0.25000000       0.019
   0.25000000  0.25000000  0.25000000       0.019
   0.41666667  0.25000000  0.25000000       0.037
  -0.41666667  0.25000000  0.25000000       0.037
  -0.25000000  0.25000000  0.25000000       0.019
   0.41666667  0.41666667  0.25000000       0.019
  -0.41666667  0.41666667  0.25000000       0.019
   0.08333333  0.08333333  0.41666667       0.019
   0.25000000  0.08333333  0.41666667       0.037
   0.41666667  0.08333333  0.41666667       0.037
  -0.41666667  0.08333333  0.41666667       0.037
  -0.25000000  0.08333333  0.41666667       0.037
  -0.08333333  0.08333333  0.41666667       0.019
   0.25000000  0.25000000  0.41666667       0.019
   0.41666667  0.25000000  0.41666667       0.037
  -0.41666667  0.25000000  0.41666667       0.037
  -0.25000000  0.25000000  0.41666667       0.019
   0.41666667  0.41666667  0.41666667       0.019
  -0.41666667  0.41666667  0.41666667       0.019

 position of ions in fractional coordinates (direct lattice)
   0.00000000  0.00000000  0.00000000
   0.33333333  0.66666667  0.50000000

 position of ions in cartesian coordinates  (Angst):
   0.00000000  0.00000000  0.00000000
  -0.00000000  1.52997821  2.16371175

 k-point  1 :   0.0833 0.0833 0.0833  plane waves:     575
 k-point  2 :   0.2500 0.0833 0.0833  plane waves:     579
 k-point  3 :   0.4167 0.0833 0.0833  plane waves:     567
 k-point  4 :  -0.4167 0.0833 0.0833  plane waves:     573
 k-point  5 :  -0.2500 0.0833 0.0833  plane waves:     580
 k-point  6 :  -0.0833 0.0833 0.0833  plane waves:     571
 k-point  7 :   0.2500 0.2500 0.0833  plane waves:     566
 k-point  8 :   0.4167 0.2500 0.0833  plane waves:     563
 k-point  9 :  -0.4167 0.2500 0.0833  plane waves:     566
 k-point 10 :  -0.2500 0.2500 0.0833  plane waves:     578
 k-point 11 :   0.4167 0.4167 0.0833  plane waves:     564
 k-point 12 :  -0.4167 0.4167 0.0833  plane waves:     572
 k-point 13 :   0.0833 0.0833 0.2500  plane waves:     576
 k-point 14 :   0.2500 0.0833 0.2500  plane waves:     575
 k-point 15 :   0.4167 0.0833 0.2500  plane waves:     567
 k-point 16 :  -0.4167 0.0833 0.2500  plane waves:     571
 k-point 17 :  -0.2500 0.0833 0.2500  plane waves:     577
 k-point 18 :  -0.0833 0.0833 0.2500  plane waves:     575
 k-point 19 :   0.2500 0.2500 0.2500  plane waves:     567
 k-point 20 :   0.4167 0.2500 0.2500  plane waves:     563
 k-point 21 :  -0.4167 0.2500 0.2500  plane waves:     569
 k-point 22 :  -0.2500 0.2500 0.2500  plane waves:     578
 k-point 23 :   0.4167 0.4167 0.2500  plane waves:     566
 k-point 24 :  -0.4167 0.4167 0.2500  plane waves:     567
 k-point 25 :   0.0833 0.0833 0.4167  plane waves:     581
 k-point 26 :   0.2500 0.0833 0.4167  plane waves:     571
 k-point 27 :   0.4167 0.0833 0.4167  plane waves:     567
 k-point 28 :  -0.4167 0.0833 0.4167  plane waves:     564
 k-point 29 :  -0.2500 0.0833 0.4167  plane waves:     573
 k-point 30 :  -0.0833 0.0833 0.4167  plane waves:     580
 k-point 31 :   0.2500 0.2500 0.4167  plane waves:     566
 k-point 32 :   0.4167 0.2500 0.4167  plane waves:     564
 k-point 33 :  -0.4167 0.2500 0.4167  plane waves:     564
 k-point 34 :  -0.2500 0.2500 0.4167  plane waves:     578
 k-point 35 :   0.4167 0.4167 0.4167  plane waves:     566
 k-point 36 :  -0.4167 0.4167 0.4167  plane waves:     563

 maximum and minimum number of plane-waves per node :       581      563

 maximum number of plane-waves:       581
 maximum index in each direction:
   IXMAX=    4   IYMAX=    4   IZMAX=    7
   IXMIN=   -4   IYMIN=   -4   IZMIN=   -7

 NGX is ok and might be reduce to  18
 NGY is ok and might be reduce to  18
 NGZ is ok and might be reduce to  30

 serial   3D FFT for wavefunctions
 parallel 3D FFT for charge:
    minimum data exchange during FFTs selected (reduces bandwidth)

 Broyden mixing: mesh for mixing (old mesh)
   NGX =  9   NGY =  9   NGZ = 15
  (NGX  = 36   NGY  = 36   NGZ  = 60)
  gives a total of   1215 points

 initial charge density was supplied:
 charge density of overlapping atoms calculated
 number of electron       8.0000000 magnetization
 keeping initial charge density in first step

 Maximum index for augmentation-charges         2995 (set IRDMAX)

 First call to EWALD:  gamma=   0.596
 Maximum number of real-space cells 3x 3x 2
 Maximum number of reciprocal cells 3x 3x 4

 FEWALD executed in parallel

----------------------------------------- Iteration    1(   1)  ---------------------------------------

 eigenvalue-minimisations  :   592
 total energy-change (2. order) : 0.2322299E+01  (-0.3257126E+03)
 number of electron       8.0000000 magnetization
 augmentation part        8.0000000 magnetization

 Free energy of the ion-electron system (eV)
  alpha Z        PSCENC =         5.11637911
  Ewald energy   TEWEN  =      -281.85422044
  -Hartree energ DENC   =        -0.85244363
  -exchange      EXHF   =         0.00000000
  -V(xc)+E(xc)   XCENC  =       -17.09433745
  PAW double counting   =       176.24759923     -141.06103558
  entropy T*S    EENTRO =        -0.00273079
  eigenvalues    EBANDS =        55.69116133
  atomic energy  EATOM  =       206.13192747
  Solvation  Ediel_sol  =         0.00000000
  free energy    TOTEN  =         2.32229925 eV

  energy without entropy =        2.32503004  energy(sigma->0) =        2.32366465

[...]

 eigenvalue-minimisations  :   816
 total energy-change (2. order) :-0.1195641E+02  (-0.1163888E+02)
 number of electron       8.0000000 magnetization
 augmentation part        8.0000000 magnetization

[...]

 Broyden mixing:
  rms(total) = 0.45003E+00    rms(broyden)= 0.45003E+00
  rms(prec ) = 0.50451E+00
  weight for this iteration     100.00

[...]

 eigenvalues of (default mixing * dielectric matrix)
  average eigenvalue GAMMA=   2.2320
  2.2320

[...]

 average (electrostatic) potential at core
  the test charge radii are     0.9892
  (the norm of the test charge is              1.0000)
       1 -78.5936       2 -78.5936

 E-fermi :  11.4282     XC(G=0): -11.5840     alpha+bet :-18.2267

 k-point     1 :       0.0833    0.0833    0.0833
  band No.  band energies     occupation
      1      -3.2645      2.00000
      2       3.0832      2.00000
      3       5.5848      2.00000
      4      16.1098      0.00000
      5      16.5172      0.00000
      6      21.5318      0.00000
      7      21.8107      0.00000
      8      22.0140      0.00000

[...]

 soft charge-density along one line, spin component           1
         0         1         2         3         4         5         6         7         8         9
 total charge-density along one line

------------------------ aborting loop because EDIFF is reached ----------------------------------------

  FORCE on cell =-STRESS in cart. coord.  units (eV):
  Direction    XX          YY          ZZ          XY          YZ          ZX
  Alpha Z     5.11638     5.11638     5.11638
  Ewald     -94.01577   -94.01577   -93.82288    -0.00000     0.00000     0.00000
  Hartree     0.21234     0.21234     0.23073    -0.00000    -0.00000    -0.00000
  E(xc)     -26.01447   -26.01447   -26.03878    -0.00000     0.00000     0.00000
  Local      -8.24516    -8.24516    -8.55808    -0.00001    -0.00000    -0.00000
  n-local    74.67154    78.28898    77.01418    -1.11120     0.11383    -0.69072
  augment   -12.26539   -12.26539   -12.25515     0.00001     0.00000     0.00000
  Kinetic    76.16991    44.63548    59.40983    10.73927     0.00602     0.08235
  Fock        0.00000     0.00000     0.00000     0.00000     0.00000     0.00000
  Total       1.67089     1.67089     1.09624     0.00000     0.00000     0.00000
  in kB     101.71981   101.71981    66.73648     0.00000     0.00000     0.00000

 VOLUME and BASIS-vectors are now :
  energy-cutoff  :      450.00
  volume of cell :       26.32
      direct lattice vectors                 reciprocal lattice vectors
     2.650000000  0.000000000  0.000000000     0.377358491  0.217868026  0.000000000
    -1.325000000  2.294967320  0.000000000     0.000000000  0.435736052  0.000000000
     0.000000000  0.000000000  4.327423500     0.000000000  0.000000000  0.231084385

[...]

 FORCES acting on ions
    electron-ion (+dipol)            ewald-force                    non-local-force                 convergence-correction
   -.260E-08 0.150E-08 0.815E-15   -.896E-13 0.708E-13 -.392E-14   0.737E-16 -.867E-18 0.000E+00   0.706E-09 -.408E-09 0.310E-14
   0.260E-08 -.150E-08 -.106E-13   0.912E-13 -.721E-13 0.392E-14   -.555E-16 0.520E-17 0.000E+00   -.706E-09 0.408E-09 -.307E-14
   -.491E-14 -.146E-14 -.982E-14   0.163E-14 -.128E-14 0.000E+00   0.182E-16 0.434E-17 0.000E+00   -.901E-17 0.278E-16 0.273E-16

 POSITION                                       TOTAL-FORCE (eV/Angst)
      0.00000      0.00000      0.00000         0.000000      0.000000      0.000000
     -0.00000      1.52998      2.16371        -0.000000      0.000000      0.000000
    total drift:                               -0.000000     -0.000000     -0.000000

  FREE ENERGIE OF THE ION-ELECTRON SYSTEM (eV)
  free  energy   TOTEN  =        -9.79250263 eV

  energy  without entropy=       -9.79089765  energy(sigma->0) =       -9.79170014

[...]

 d Force = 0.0000000E+00[ 0.000E+00, 0.000E+00]  d Energy = 0.4345617E-02-0.435E-02
 d Force = 0.0000000E+00[ 0.000E+00, 0.000E+00]  d Ewald  =-0.9292724E-02 0.929E-02

 Steepest descent step on ions:
 trial-energy change:   -0.004346  1 .order   -0.005304   -0.005310   -0.005297
  (g-gl).g = 0.531E-02      g.g   = 0.531E-02  gl.gl    = 0.000E+00
 g(Force)  = 0.145E-51   g(Stress)= 0.531E-02 ortho     = 0.000E+00
 gamma     =   0.00000
 trial     =   1.00000
 opt step  =   4.00000  (harmonic = 399.84020) maximal distance =0.00000000
 next E    =   -10.854128   (d E  =  -1.06162)

[...]

 d Force = 0.0000000E+00[ 0.000E+00, 0.000E+00]  d Energy =-0.1147787E-01 0.115E-01
 d Force = 0.0000000E+00[ 0.000E+00, 0.000E+00]  d Ewald  =-0.1136442E+00 0.114E+00

[...]

 d Force = 0.0000000E+00[ 0.000E+00, 0.000E+00]  d Energy = 0.1428605E-01-0.143E-01
 d Force = 0.0000000E+00[ 0.000E+00, 0.000E+00]  d Ewald  = 0.9682126E-01-0.968E-01

[...]

 eigenvalues of (default mixing * dielectric matrix)
  average eigenvalue GAMMA=   1.6297
  1.0312  2.2283

[...]

 d Force = 0.0000000E+00[ 0.000E+00, 0.000E+00]  d Energy = 0.1467181E-03-0.147E-03
 d Force = 0.0000000E+00[ 0.000E+00, 0.000E+00]  d Ewald  =-0.7850102E-02 0.785E-02

 FEWALD executed in parallel

[...]

 eigenvalue-minimisations  :   856
 total energy-change (2. order) :-0.1286935E-04  (-0.2607664E-04)
 number of electron       8.0000000 magnetization
 augmentation part       -0.4827405 magnetization

 Broyden mixing:
  rms(total) = 0.10135E-02    rms(broyden)= 0.10135E-02
  rms(prec ) = 0.23855E-02
  weight for this iteration     100.00

[...]

----------------------------------------- Iteration    6(   2)  ---------------------------------------

 eigenvalue-minimisations  :   440
 total energy-change (2. order) : 0.2209513E-05  (-0.4467820E-06)
 number of electron       8.0000000 magnetization
 augmentation part       -0.4827405 magnetization

 Free energy of the ion-electron system (eV)
  alpha Z        PSCENC =         5.11637911
  Ewald energy   TEWEN  =      -281.82189056
  -Hartree energ DENC   =        -0.66692117
  -exchange      EXHF   =         0.00000000
  -V(xc)+E(xc)   XCENC  =       -16.92902921
  PAW double counting   =       743.65120480     -708.52280930
  entropy T*S    EENTRO =        -0.00410425
  eigenvalues    EBANDS =        43.24542952
  atomic energy  EATOM  =       206.13192747
  Solvation  Ediel_sol  =         0.00000000
  free energy    TOTEN  =        -9.79981360 eV

  energy without entropy =       -9.79570935  energy(sigma->0) =       -9.79776148

 average (electrostatic) potential at core
  the test charge radii are     0.9892
  (the norm of the test charge is              1.0000)
       1 -78.5935       2 -78.5935

 E-fermi :  11.4919     XC(G=0): -11.5838     alpha+bet :-18.2267

[...]

 k-point    36 :      -0.4167    0.4167    0.4167
  band No.  band energies     occupation
      1       2.1061      2.00000
      2       3.4022      2.00000
      3       6.5100      2.00000
      4       7.7696      2.00000
      5      15.8742      0.00000
      6      15.9707      0.00000
      7      17.1339      0.00000
      8      17.8716      0.00000

 soft charge-density along one line, spin component           1
         0         1         2         3         4         5         6         7         8         9
 total charge-density along one line

------------------------ aborting loop because EDIFF is reached ----------------------------------------

  FORCE on cell =-STRESS in cart. coord.  units (eV):
  Direction    XX          YY          ZZ          XY          YZ          ZX
  Alpha Z     5.11638     5.11638     5.11638
  Ewald     -95.03714   -95.03714   -91.74781    -0.00000    -0.00000    -0.00000
  Hartree     0.17490     0.17490     0.31672    -0.00000    -0.00000    -0.00000
  E(xc)     -26.00740   -26.00740   -26.06281     0.00000     0.00000     0.00000
  Local      -7.23444    -7.23445   -10.66265    -0.00001    -0.00000    -0.00000
  n-local    74.63589    78.06921    77.48570    -0.98627     0.10167    -0.65997
  augment   -12.26572   -12.26571   -12.30439     0.00001     0.00000    -0.00000
  Kinetic    75.88959    44.93149    59.37618     9.96343    -0.00694     0.63236
  Fock        0.00000     0.00000     0.00000     0.00000     0.00000     0.00000
  Total       1.50968     1.50968     1.51733     0.00000    -0.00000    -0.00000
  in kB      91.90595    91.90595    92.37142     0.00000    -0.00000    -0.00000

 VOLUME and BASIS-vectors are now :
  energy-cutoff  :      450.00
  volume of cell :       26.32
      direct lattice vectors                 reciprocal lattice vectors
     2.674349151  0.000000000  0.000000000     0.373922754  0.215884403 -0.000000000
    -1.337174575  2.316054303 -0.000000000     0.000000000  0.431768805 -0.000000000
    -0.000000000  0.000000000  4.248982425    -0.000000000  0.000000000  0.235350467

  length of vectors
     2.674349151  2.674349151  4.248982425     0.431768805  0.431768805  0.235350467

 FORCES acting on ions
    electron-ion (+dipol)            ewald-force                    non-local-force                 convergence-correction
   -.142E-08 0.818E-09 0.220E-14   -.115E-12 0.799E-13 -.358E-14   0.121E-16 -.173E-17 0.000E+00   -.111E-09 0.639E-10 -.777E-15
   0.142E-08 -.818E-09 -.115E-13   0.114E-12 -.809E-13 0.358E-14   -.252E-16 -.234E-20 0.000E+00   0.111E-09 -.639E-10 0.787E-15
   -.661E-14 -.523E-14 -.930E-14   -.128E-14 -.104E-14 -.174E-17   -.130E-16 -.173E-17 0.000E+00   0.928E-17 0.358E-16 0.966E-17

 POSITION                                       TOTAL-FORCE (eV/Angst)
      0.00000     -0.00000      0.00000         0.000000      0.000000      0.000000
     -0.00000      1.54404      2.12449        -0.000000     -0.000000     -0.000000
    total drift:                               -0.000000     -0.000000     -0.000000

  FREE ENERGIE OF THE ION-ELECTRON SYSTEM (eV)
  free  energy   TOTEN  =        -9.79981360 eV

  energy  without entropy=       -9.79570935  energy(sigma->0) =       -9.79776148

 d Force = 0.0000000E+00[ 0.000E+00, 0.000E+00]  d Energy = 0.1045208E-04-0.105E-04
 d Force = 0.0000000E+00[ 0.000E+00, 0.000E+00]  d Ewald  = 0.1635856E-02-0.164E-02

 reached required accuracy - stopping structural energy minimisation
 writing wavefunctions