 vasp.5.4.1 24Jun15 (build Jul 19 2016 16:50:41) complex

 executed on           IFC91_ompi date 2019.11.12  12:31:41

 INCAR:
 POTCAR:    US Si
 POTCAR:    US Si
   VRHFIN =Si: s2p2
   GGA    =    -1.4125   -1.4408     .0293    -.9884 eV

   TITEL  = US Si
   POMASS =   28.085; ZVAL   =    4.000    mass and valenz
   ENMAX  =  150.544; ENMIN  =  112.908 eV

   QCUT   =   -3.326; QGAM   =    6.653    optimization parameters

   Description
     l     E      TYP  RCUT    TYP  RCUT
     0   .000     15  2.210    23  2.480
     0   .000     15  2.210    23  2.480
     1   .000     15  2.210    23  2.480
     1   .000     15  2.210    23  2.480
     2   .000      7  2.480     7  2.480

  US Si                                 :

 POSCAR: diamond Si
  positions in cartesian coordinates
 exchange correlation table for  LEXCH =        2
   RHO(1)=    0.500       N(1)  =     2000
   RHO(2)=  100.500       N(2)  =     4000

 ion  position               nearest neighbor table
   1  0.000  0.000  0.000-
   2  0.250  0.250  0.250-

  LATTYP: Found a face centered cubic cell.
 ALAT       =    10.2600000000

  Lattice vectors:

 A1 = (   0.0000000000,   5.1300000000,   5.1300000000)
 A2 = (   5.1300000000,   0.0000000000,   5.1300000000)
 A3 = (   5.1300000000,   5.1300000000,   0.0000000000)

Analysis of symmetry for initial positions (statically):
 Subroutine PRICEL returns:
 Original cell was already a primitive cell.

 Routine SETGRP: Setting up the symmetry group for a
 face centered cubic supercell.

 Subroutine GETGRP returns: Found 48 space group operations
 (whereof 24 operations were pure point group operations)
 out of a pool of 48 trial point group operations.

The static configuration has the point symmetry T_d .
 The point group associated with its full space group is O_h .

Analysis of symmetry for dynamics (positions and initial velocities):
 Subroutine PRICEL returns:
 Original cell was already a primitive cell.

 Routine SETGRP: Setting up the symmetry group for a
 face centered cubic supercell.

 Subroutine GETGRP returns: Found 48 space group operations
 (whereof 24 operations were pure point group operations)
 out of a pool of 48 trial point group operations.

The dynamic configuration has the point symmetry T_d .
 The point group associated with its full space group is O_h .

 Subroutine INISYM returns: Found 48 space group operations
 (whereof 24 operations are pure point group operations),
 and found     1 'primitive' translations

 KPOINTS: K-Points

Automatic generation of k-mesh.
Space group operators:
 irot       det(A)        alpha          n_x          n_y          n_z        tau_x        tau_y        tau_z
    1     1.000000     0.000000     1.000000     0.000000     0.000000     0.000000     0.000000     0.000000
    2     1.000000   120.000000    -0.577350    -0.577350    -0.577350     0.000000     0.000000     0.000000
    3     1.000000   120.000000     0.577350     0.577350     0.577350     0.000000     0.000000     0.000000
    4    -1.000000    90.000000     0.000000     0.000000    -1.000000     0.000000     0.000000     0.000000
    5    -1.000000   180.000000     0.000000     0.707107     0.707107     0.000000     0.000000     0.000000
    6    -1.000000    90.000000     0.000000     1.000000     0.000000     0.000000     0.000000     0.000000
    7     1.000000   180.000000     0.000000     0.000000     1.000000     0.000000     0.000000     0.000000
    8     1.000000   120.000000    -0.577350     0.577350     0.577350     0.000000     0.000000     0.000000
    9     1.000000   120.000000    -0.577350     0.577350    -0.577350     0.000000     0.000000     0.000000
   10    -1.000000    90.000000     0.000000     0.000000     1.000000     0.000000     0.000000     0.000000
   11    -1.000000    90.000000    -1.000000     0.000000     0.000000     0.000000     0.000000     0.000000
   12    -1.000000   180.000000     0.707107     0.000000     0.707107     0.000000     0.000000     0.000000
   13     1.000000   120.000000     0.577350    -0.577350     0.577350     0.000000     0.000000     0.000000
   14     1.000000   120.000000    -0.577350    -0.577350     0.577350     0.000000     0.000000     0.000000
   15     1.000000   180.000000     1.000000     0.000000     0.000000     0.000000     0.000000     0.000000
   16    -1.000000    90.000000     0.000000    -1.000000     0.000000     0.000000     0.000000     0.000000
   17    -1.000000   180.000000     0.707107     0.707107     0.000000     0.000000     0.000000     0.000000
   18    -1.000000    90.000000     1.000000     0.000000     0.000000     0.000000     0.000000     0.000000
   19     1.000000   120.000000     0.577350    -0.577350    -0.577350     0.000000     0.000000     0.000000
   20     1.000000   180.000000     0.000000     1.000000     0.000000     0.000000     0.000000     0.000000
   21     1.000000   120.000000     0.577350     0.577350    -0.577350     0.000000     0.000000     0.000000
   22    -1.000000   180.000000     0.000000    -0.707107     0.707107     0.000000     0.000000     0.000000
   23    -1.000000   180.000000     0.707107    -0.707107     0.000000     0.000000     0.000000     0.000000
   24    -1.000000   180.000000     0.707107     0.000000    -0.707107     0.000000     0.000000     0.000000
   25    -1.000000     0.000000     1.000000     0.000000     0.000000     0.250000     0.250000     0.250000
   26    -1.000000   120.000000    -0.577350    -0.577350    -0.577350     0.250000     0.250000     0.250000
   27    -1.000000   120.000000     0.577350     0.577350     0.577350     0.250000     0.250000     0.250000
   28     1.000000    90.000000     0.000000     0.000000    -1.000000     0.250000     0.250000     0.250000
   29     1.000000   180.000000     0.000000     0.707107     0.707107     0.250000     0.250000     0.250000
   30     1.000000    90.000000     0.000000     1.000000     0.000000     0.250000     0.250000     0.250000
   31    -1.000000   180.000000     0.000000     0.000000     1.000000     0.250000     0.250000     0.250000
   32    -1.000000   120.000000    -0.577350     0.577350     0.577350     0.250000     0.250000     0.250000
   33    -1.000000   120.000000    -0.577350     0.577350    -0.577350     0.250000     0.250000     0.250000
   34     1.000000    90.000000     0.000000     0.000000     1.000000     0.250000     0.250000     0.250000
   35     1.000000    90.000000    -1.000000     0.000000     0.000000     0.250000     0.250000     0.250000
   36     1.000000   180.000000     0.707107     0.000000     0.707107     0.250000     0.250000     0.250000
   37    -1.000000   120.000000     0.577350    -0.577350     0.577350     0.250000     0.250000     0.250000
   38    -1.000000   120.000000    -0.577350    -0.577350     0.577350     0.250000     0.250000     0.250000
   39    -1.000000   180.000000     1.000000     0.000000     0.000000     0.250000     0.250000     0.250000
   40     1.000000    90.000000     0.000000    -1.000000     0.000000     0.250000     0.250000     0.250000
   41     1.000000   180.000000     0.707107     0.707107     0.000000     0.250000     0.250000     0.250000
   42     1.000000    90.000000     1.000000     0.000000     0.000000     0.250000     0.250000     0.250000
   43    -1.000000   120.000000     0.577350    -0.577350    -0.577350     0.250000     0.250000     0.250000
   44    -1.000000   180.000000     0.000000     1.000000     0.000000     0.250000     0.250000     0.250000
   45    -1.000000   120.000000     0.577350     0.577350    -0.577350     0.250000     0.250000     0.250000
   46     1.000000   180.000000     0.000000    -0.707107     0.707107     0.250000     0.250000     0.250000
   47     1.000000   180.000000     0.707107    -0.707107     0.000000     0.250000     0.250000     0.250000
   48     1.000000   180.000000     0.707107     0.000000    -0.707107     0.250000     0.250000     0.250000

 Subroutine IBZKPT returns following result:

 Found     47 irreducible k-points:

 Following reciprocal coordinates:
            Coordinates               Weight
  0.000000  0.000000  0.000000      1.000000
  0.100000  0.000000  0.000000      8.000000
  0.200000  0.000000  0.000000      8.000000
  0.300000  0.000000  0.000000      8.000000
  0.400000  0.000000  0.000000      8.000000
  0.500000  0.000000  0.000000      4.000000
  0.100000  0.100000  0.000000      6.000000
  0.200000  0.100000  0.000000     24.000000
  0.300000  0.100000  0.000000     24.000000
  0.400000  0.100000  0.000000     24.000000
  0.500000  0.100000  0.000000     24.000000
 -0.400000  0.100000  0.000000     24.000000
 -0.300000  0.100000  0.000000     24.000000
 -0.200000  0.100000  0.000000     24.000000
 -0.100000  0.100000  0.000000     12.000000
  0.200000  0.200000  0.000000      6.000000
  0.300000  0.200000  0.000000     24.000000
  0.400000  0.200000  0.000000     24.000000
  0.500000  0.200000  0.000000     24.000000
 -0.400000  0.200000  0.000000     24.000000
 -0.300000  0.200000  0.000000     24.000000
 -0.200000  0.200000  0.000000     12.000000
  0.300000  0.300000  0.000000      6.000000
  0.400000  0.300000  0.000000     24.000000
  0.500000  0.300000  0.000000     24.000000
 -0.400000  0.300000  0.000000     24.000000
 -0.300000  0.300000  0.000000     12.000000
  0.400000  0.400000  0.000000      6.000000
  0.500000  0.400000  0.000000     24.000000
 -0.400000  0.400000  0.000000     12.000000
  0.500000  0.500000  0.000000      3.000000
  0.300000  0.200000  0.100000     24.000000
  0.400000  0.200000  0.100000     48.000000
  0.500000  0.200000  0.100000     48.000000
 -0.400000  0.200000  0.100000     24.000000
  0.400000  0.300000  0.100000     24.000000
  0.500000  0.300000  0.100000     48.000000
 -0.400000  0.300000  0.100000     48.000000
 -0.300000  0.300000  0.100000     48.000000
 -0.200000  0.300000  0.100000     24.000000
  0.500000  0.400000  0.100000     24.000000
 -0.400000  0.400000  0.100000     48.000000
 -0.300000  0.400000  0.100000     24.000000
 -0.400000  0.500000  0.100000     12.000000
 -0.400000  0.400000  0.200000     24.000000
 -0.300000  0.400000  0.200000     24.000000
 -0.300000  0.500000  0.200000     12.000000

 Following cartesian coordinates:
            Coordinates               Weight
  0.000000  0.000000  0.000000      1.000000
 -0.100000  0.100000  0.100000      8.000000
 -0.200000  0.200000  0.200000      8.000000
 -0.300000  0.300000  0.300000      8.000000
 -0.400000  0.400000  0.400000      8.000000
 -0.500000  0.500000  0.500000      4.000000
  0.000000  0.000000  0.200000      6.000000
 -0.100000  0.100000  0.300000     24.000000
 -0.200000  0.200000  0.400000     24.000000
 -0.300000  0.300000  0.500000     24.000000
 -0.400000  0.400000  0.600000     24.000000
  0.500000 -0.500000 -0.300000     24.000000
  0.400000 -0.400000 -0.200000     24.000000
  0.300000 -0.300000 -0.100000     24.000000
  0.200000 -0.200000  0.000000     12.000000
  0.000000  0.000000  0.400000      6.000000
 -0.100000  0.100000  0.500000     24.000000
 -0.200000  0.200000  0.600000     24.000000
 -0.300000  0.300000  0.700000     24.000000
[...]
   OMEGAMAX=  -1.0    maximum frequency
   DEG_THRESHOLD= 0.2000000E-02 threshold for treating states as degnerate
   RTIME   =    0.100 relaxation time in fs

 Orbital magnetization related:
   ORBITALMAG=     F  switch on orbital magnetization
   LCHIMAG   =     F  perturbation theory with respect to B field
   DQ        =  0.001000  dq finite difference perturbation B field

 Static calculation
 charge density and potential will be updated during run
 non-spin polarized calculation
 Variant of blocked Davidson
 Davidson routine will perform the subspace rotation
 perform sub-space diagonalisation
    after iterative eigenvector-optimisation
 modified Broyden-mixing scheme, WC =      100.0
 initial mixing is a Kerker type mixing with AMIX =  0.8000 and BMIX =      1.0000
 Hartree-type preconditioning will be used
 using additional bands            4
 reciprocal scheme for non local part
 use partial core corrections
 calculate Harris-corrections to forces
   (improved forces if not selfconsistent)
 use of overlap-Matrix (Vanderbilt PP)
 Gauss-broadening in eV      SIGMA  =   0.10

  energy-cutoff  :      307.00
  volume of cell :      270.01
      direct lattice vectors                 reciprocal lattice vectors
     0.000000000  5.130000000  5.130000000    -0.097465887  0.097465887  0.097465887
     5.130000000  0.000000000  5.130000000     0.097465887 -0.097465887  0.097465887
     5.130000000  5.130000000  0.000000000     0.097465887  0.097465887 -0.097465887

  length of vectors
     7.254915575  7.254915575  7.254915575     0.168815868  0.168815868  0.168815868

 old parameters found on file WAVECAR:
  energy-cutoff  :      307.00
  volume of cell :      270.01
      direct lattice vectors                 reciprocal lattice vectors
     0.000000000  5.130000000  5.130000000    -0.097465887  0.097465887  0.097465887
     5.130000000  0.000000000  5.130000000     0.097465887 -0.097465887  0.097465887
     5.130000000  5.130000000  0.000000000     0.097465887  0.097465887 -0.097465887

  length of vectors

 k-points in units of 2pi/SCALE and weight: K-Points
   0.00000000  0.00000000  0.00000000       0.001
  -0.10000000  0.10000000  0.10000000       0.008
  -0.20000000  0.20000000  0.20000000       0.008
  -0.30000000  0.30000000  0.30000000       0.008
  -0.40000000  0.40000000  0.40000000       0.008
  -0.50000000  0.50000000  0.50000000       0.004
   0.00000000  0.00000000  0.20000000       0.006
  -0.10000000  0.10000000  0.30000000       0.024
  -0.20000000  0.20000000  0.40000000       0.024
  -0.30000000  0.30000000  0.50000000       0.024
  -0.40000000  0.40000000  0.60000000       0.024
   0.50000000 -0.50000000 -0.30000000       0.024
   0.40000000 -0.40000000 -0.20000000       0.024
   0.30000000 -0.30000000 -0.10000000       0.024
   0.20000000 -0.20000000  0.00000000       0.012
   0.00000000  0.00000000  0.40000000       0.006
  -0.10000000  0.10000000  0.50000000       0.024
  -0.20000000  0.20000000  0.60000000       0.024
  -0.30000000  0.30000000  0.70000000       0.024
   0.60000000 -0.60000000 -0.20000000       0.024
   0.50000000 -0.50000000 -0.10000000       0.024
   0.40000000 -0.40000000  0.00000000       0.012
   0.00000000  0.00000000  0.60000000       0.006
  -0.10000000  0.10000000  0.70000000       0.024
  -0.20000000  0.20000000  0.80000000       0.024
   0.70000000 -0.70000000 -0.10000000       0.024
   0.60000000 -0.60000000  0.00000000       0.012
   0.00000000  0.00000000  0.80000000       0.006
  -0.10000000  0.10000000  0.90000000       0.024
   0.80000000 -0.80000000  0.00000000       0.012
   0.00000000  0.00000000  1.00000000       0.003
  -0.00000000  0.20000000  0.40000000       0.024
  -0.10000000  0.30000000  0.50000000       0.048
  -0.20000000  0.40000000  0.60000000       0.048
   0.70000000 -0.50000000 -0.30000000       0.024
  -0.00000000  0.20000000  0.60000000       0.024
  -0.10000000  0.30000000  0.70000000       0.048
   0.80000000 -0.60000000 -0.20000000       0.048
   0.70000000 -0.50000000 -0.10000000       0.048
   0.60000000 -0.40000000  0.00000000       0.024
   0.00000000  0.20000000  0.80000000       0.024
   0.90000000 -0.70000000 -0.10000000       0.048
   0.80000000 -0.60000000  0.00000000       0.024
   1.00000000 -0.80000000  0.00000000       0.012
   1.00000000 -0.60000000 -0.20000000       0.024
   0.90000000 -0.50000000 -0.10000000       0.024
   1.00000000 -0.60000000  0.00000000       0.012

 k-points in reciprocal lattice and weights: K-Points
   0.00000000  0.00000000  0.00000000       0.001
   0.10000000  0.00000000  0.00000000       0.008
   0.20000000  0.00000000  0.00000000       0.008
   0.30000000  0.00000000  0.00000000       0.008
   0.40000000  0.00000000  0.00000000       0.008
   0.50000000  0.00000000  0.00000000       0.004
   0.10000000  0.10000000  0.00000000       0.006
   0.20000000  0.10000000  0.00000000       0.024
   0.30000000  0.10000000  0.00000000       0.024
   0.40000000  0.10000000  0.00000000       0.024
   0.50000000  0.10000000  0.00000000       0.024
  -0.40000000  0.10000000  0.00000000       0.024
  -0.30000000  0.10000000  0.00000000       0.024
  -0.20000000  0.10000000  0.00000000       0.024
  -0.10000000  0.10000000  0.00000000       0.012
   0.20000000  0.20000000  0.00000000       0.006
   0.30000000  0.20000000  0.00000000       0.024
   0.40000000  0.20000000  0.00000000       0.024
   0.50000000  0.20000000  0.00000000       0.024
  -0.40000000  0.20000000  0.00000000       0.024
  -0.30000000  0.20000000  0.00000000       0.024
  -0.20000000  0.20000000  0.00000000       0.012
   0.30000000  0.30000000  0.00000000       0.006
   0.40000000  0.30000000  0.00000000       0.024
   0.50000000  0.30000000  0.00000000       0.024
  -0.40000000  0.30000000  0.00000000       0.024
  -0.30000000  0.30000000  0.00000000       0.012
   0.40000000  0.40000000  0.00000000       0.006
   0.50000000  0.40000000  0.00000000       0.024
  -0.40000000  0.40000000  0.00000000       0.012
   0.50000000  0.50000000  0.00000000       0.003
   0.30000000  0.20000000  0.10000000       0.024
   0.40000000  0.20000000  0.10000000       0.048
   0.50000000  0.20000000  0.10000000       0.048
  -0.40000000  0.20000000  0.10000000       0.024
   0.40000000  0.30000000  0.10000000       0.024
   0.50000000  0.30000000  0.10000000       0.048
  -0.40000000  0.30000000  0.10000000       0.048
  -0.30000000  0.30000000  0.10000000       0.048
  -0.20000000  0.30000000  0.10000000       0.024
   0.50000000  0.40000000  0.10000000       0.024
  -0.40000000  0.40000000  0.10000000       0.048
  -0.30000000  0.40000000  0.10000000       0.024
  -0.40000000  0.50000000  0.10000000       0.012
  -0.40000000  0.40000000  0.20000000       0.024
  -0.30000000  0.40000000  0.20000000       0.024
  -0.30000000  0.50000000  0.20000000       0.012

 position of ions in fractional coordinates (direct lattice)
   0.00000000  0.00000000  0.00000000
   0.25000000  0.25000000  0.25000000

 position of ions in cartesian coordinates  (Angst):
   0.00000000  0.00000000  0.00000000
   2.56500000  2.56500000  2.56500000

 k-point  1 :   0.0000 0.0000 0.0000  plane waves:    3287
 k-point  2 :   0.1000 0.0000 0.0000  plane waves:    3311
 k-point  3 :   0.2000 0.0000 0.0000  plane waves:    3320
 k-point  4 :   0.3000 0.0000 0.0000  plane waves:    3308
 k-point  5 :   0.4000 0.0000 0.0000  plane waves:    3293
 k-point  6 :   0.5000 0.0000 0.0000  plane waves:    3316
 k-point  7 :   0.1000 0.1000 0.0000  plane waves:    3315
 k-point  8 :   0.2000 0.1000 0.0000  plane waves:    3303
 k-point  9 :   0.3000 0.1000 0.0000  plane waves:    3311
 k-point 10 :   0.4000 0.1000 0.0000  plane waves:    3309
 k-point 11 :   0.5000 0.1000 0.0000  plane waves:    3295
 k-point 12 :  -0.4000 0.1000 0.0000  plane waves:    3293
 k-point 13 :  -0.3000 0.1000 0.0000  plane waves:    3308
 k-point 14 :  -0.2000 0.1000 0.0000  plane waves:    3308
 k-point 15 :  -0.1000 0.1000 0.0000  plane waves:    3305
 k-point 16 :   0.2000 0.2000 0.0000  plane waves:    3315
 k-point 17 :   0.3000 0.2000 0.0000  plane waves:    3308
 k-point 18 :   0.4000 0.2000 0.0000  plane waves:    3301
 k-point 19 :   0.5000 0.2000 0.0000  plane waves:    3299
 k-point 20 :  -0.4000 0.2000 0.0000  plane waves:    3290
 k-point 21 :  -0.3000 0.2000 0.0000  plane waves:    3302
 k-point 22 :  -0.2000 0.2000 0.0000  plane waves:    3324
 k-point 23 :   0.3000 0.3000 0.0000  plane waves:    3315
 k-point 24 :   0.4000 0.3000 0.0000  plane waves:    3302
 k-point 25 :   0.5000 0.3000 0.0000  plane waves:    3285
 k-point 26 :  -0.4000 0.3000 0.0000  plane waves:    3283
 k-point 27 :  -0.3000 0.3000 0.0000  plane waves:    3278
 k-point 28 :   0.4000 0.4000 0.0000  plane waves:    3302
 k-point 29 :   0.5000 0.4000 0.0000  plane waves:    3302
 k-point 30 :  -0.4000 0.4000 0.0000  plane waves:    3286
 k-point 31 :   0.5000 0.5000 0.0000  plane waves:    3306
 k-point 32 :   0.3000 0.2000 0.1000  plane waves:    3308
 k-point 33 :   0.4000 0.2000 0.1000  plane waves:    3308
 k-point 34 :   0.5000 0.2000 0.1000  plane waves:    3299
 k-point 35 :  -0.4000 0.2000 0.1000  plane waves:    3286
 k-point 36 :   0.4000 0.3000 0.1000  plane waves:    3307
 k-point 37 :   0.5000 0.3000 0.1000  plane waves:    3300
 k-point 38 :  -0.4000 0.3000 0.1000  plane waves:    3296
 k-point 39 :  -0.3000 0.3000 0.1000  plane waves:    3291
 k-point 40 :  -0.2000 0.3000 0.1000  plane waves:    3291
 k-point 41 :   0.5000 0.4000 0.1000  plane waves:    3304
 k-point 42 :  -0.4000 0.4000 0.1000  plane waves:    3293
 k-point 43 :  -0.3000 0.4000 0.1000  plane waves:    3287
 k-point 44 :  -0.4000 0.5000 0.1000  plane waves:    3304
 k-point 45 :  -0.4000 0.4000 0.2000  plane waves:    3289
 k-point 46 :  -0.3000 0.4000 0.2000  plane waves:    3294
 k-point 47 :  -0.3000 0.5000 0.2000  plane waves:    3294

 maximum and minimum number of plane-waves per node :      3324     3278

 maximum number of plane-waves:      3324
 maximum index in each direction:
   IXMAX=   10   IYMAX=   10   IZMAX=   10
   IXMIN=  -10   IYMIN=  -10   IZMIN=  -10

 NGX is ok and might be reduce to  42
 NGY is ok and might be reduce to  42
 NGZ is ok and might be reduce to  42

 serial   3D FFT for wavefunctions
 parallel 3D FFT for charge:
    minimum data exchange during FFTs selected (reduces bandwidth)

 Broyden mixing: mesh for mixing (old mesh)
   NGX = 21   NGY = 21   NGZ = 21
  (NGX  = 84   NGY  = 84   NGZ  = 84)
  gives a total of   9261 points

 charge density for first step will be calculated from the start-wavefunctions

 Maximum index for augmentation-charges         5385 (set IRDMAX)

 initial charge from wavefunction
 First call to EWALD:  gamma=   0.274
 Maximum number of real-space cells 3x 3x 3
 Maximum number of reciprocal cells 3x 3x 3

 FEWALD executed in parallel

----------------------------------------- Iteration    1(   1)  ---------------------------------------

 eigenvalue-minimisations  :   376
 total energy-change (2. order) :-0.2382252E+01  (-0.3814613E-07)
 number of electron       8.0000000 magnetization
 augmentation part       -1.3382563 magnetization

 Broyden mixing:
  rms(total) = 0.69548E-05    rms(broyden)= 0.69539E-05
  rms(prec ) = 0.18026E-04
  weight for this iteration     100.00

 Free energy of the ion-electron system (eV)
  alpha Z        PSCENC =         1.24091711
  Ewald energy   TEWEN  =      -120.96490647
  -Hartree energ DENC   =       -50.87207721
  -exchange      EXHF   =         0.00000000
  -V(xc)+E(xc)   XCENC  =       -11.86598306
  PAW double counting   =         0.00000000        0.00000000
  entropy T*S    EENTRO =        -0.03986798
  eigenvalues    EBANDS =       -51.40188962
  atomic energy  EATOM  =       231.52155534
  Solvation  Ediel_sol  =         0.00000000
  free energy    TOTEN  =        -2.38225189 eV

  energy without entropy =       -2.34238390  energy(sigma->0) =       -2.36231789

----------------------------------------- Iteration    1(   2)  ---------------------------------------

 eigenvalue-minimisations  :   376
 total energy-change (2. order) :-0.7539313E-08  (-0.6887704E-08)
 number of electron       8.0000000 magnetization
 augmentation part       -1.3382563 magnetization

 Free energy of the ion-electron system (eV)
  alpha Z        PSCENC =         1.24091711
  Ewald energy   TEWEN  =      -120.96490647
  -Hartree energ DENC   =       -50.87206441
  -exchange      EXHF   =         0.00000000
  -V(xc)+E(xc)   XCENC  =       -11.86598794
  PAW double counting   =         0.00000000        0.00000000
  entropy T*S    EENTRO =        -0.03986795
  eigenvalues    EBANDS =       -51.40189758
  atomic energy  EATOM  =       231.52155534
  Solvation  Ediel_sol  =         0.00000000
  free energy    TOTEN  =        -2.38225189 eV

  energy without entropy =       -2.34238394  energy(sigma->0) =       -2.36231792

 average (electrostatic) potential at core
  the test charge radii are     1.2631
  (the norm of the test charge is              1.0000)
       1 -59.7832       2 -59.7832

 E-fermi :  -3.1461     XC(G=0):  -3.9867     alpha+bet : -1.6947

 k-point     1 :       0.0000    0.0000    0.0000
  band No.  band energies     occupation
      1      -9.7913      2.00000
      2      -9.2617      2.00000
      3      -3.0926      0.44913
      4      -3.0926      0.44913
      5      -3.0926      0.44913
      6      -2.4074      0.00000
      7      -2.4074      0.00000
      8      -2.4074      0.00000

[...]

 k-point    47 :      -0.3000    0.5000    0.2000
  band No.  band energies     occupation
      1      -9.5368      2.00000
      2      -9.5368      2.00000
      3      -3.4076      1.99978
      4      -3.4076      1.99978
      5      -2.7672      0.00000
      6      -2.7672      0.00000
      7      -2.0492      0.00000
      8      -2.0492      0.00000

 soft charge-density along one line, spin component           1
         0         1         2         3         4         5         6         7         8         9
 total charge-density along one line

------------------------ aborting loop because EDIFF is reached ----------------------------------------

  FORCE on cell =-STRESS in cart. coord.  units (eV):
  Direction    XX          YY          ZZ          XY          YZ          ZX
  Alpha Z     1.24092     1.24092     1.24092
  Ewald     -40.32165   -40.32165   -40.32165     0.00000     0.00000     0.00000
  Hartree    16.95729    16.95729    16.95729     0.00000     0.00000     0.00000
  E(xc)     -20.64573   -20.64573   -20.64573    -0.00000    -0.00000    -0.00000
  Local     -62.05287   -62.05287   -62.05287    -0.00000    -0.00000    -0.00000
  n-local    69.77341    70.88412    66.37542     0.58980    -0.11082    -0.16848
  augment   -19.64632   -19.82861   -19.08594    -0.09694     0.01850     0.02631
  Kinetic    53.71552    55.98575    46.35536     1.35321    -0.45466    -0.04780
  Fock        0.00000     0.00000     0.00000     0.00000     0.00000     0.00000
  Total      -3.31247    -3.31247    -3.31247     0.00000     0.00000     0.00000
  in kB     -19.65534   -19.65534   -19.65534     0.00000     0.00000     0.00000

 VOLUME and BASIS-vectors are now :
  energy-cutoff  :      307.00
  volume of cell :      270.01
      direct lattice vectors                 reciprocal lattice vectors
     0.000000000  5.130000000  5.130000000    -0.097465887  0.097465887  0.097465887
     5.130000000  0.000000000  5.130000000     0.097465887 -0.097465887  0.097465887
     5.130000000  5.130000000  0.000000000     0.097465887  0.097465887 -0.097465887

  length of vectors
     7.254915575  7.254915575  7.254915575     0.168815868  0.168815868  0.168815868

 FORCES acting on ions
    electron-ion (+dipol)            ewald-force                    non-local-force                 convergence-correction
   -.783E-09 -.783E-09 -.667E-09   -.447E-14 -.498E-14 -.527E-14   0.000E+00 0.000E+00 -.867E-18   -.155E-11 -.155E-11 -.154E-11
   0.782E-09 0.782E-09 0.667E-09   0.449E-14 0.481E-14 0.514E-14   0.000E+00 0.000E+00 -.173E-17   0.154E-11 0.154E-11 0.155E-11
   -.902E-13 -.730E-13 -.239E-13   0.196E-16 -.173E-15 -.123E-15   0.000E+00 0.000E+00 -.260E-17   -.819E-14 -.789E-14 0.135E-14

 POSITION                                       TOTAL-FORCE (eV/Angst)
      0.00000      0.00000      0.00000         0.000000      0.000000      0.000000
      2.56500      2.56500      2.56500        -0.000000     -0.000000     -0.000000
    total drift:                               -0.000000     -0.000000     -0.000000

  FREE ENERGIE OF THE ION-ELECTRON SYSTEM (eV)
  free  energy   TOTEN  =        -2.38225189 eV

  energy  without entropy=       -2.34238394  energy(sigma->0) =       -2.36231792

 writing wavefunctions