 vasp.5.4.1 24Jun15 (build Jul 19 2016 16:50:41) complex

 executed on           IFC91_ompi date 2019.10.17  12:18:31

 INCAR:
 POTCAR:    PAW_PBE Si 05Jan2001
 POTCAR:    PAW_PBE Si 05Jan2001
   VRHFIN =Si: s2p2

   TITEL  = PAW_PBE Si 05Jan2001
   POMASS =   28.085; ZVAL   =    4.000    mass and valenz
   ENMAX  =  245.345; ENMIN  =  184.009 eV

  PAW_PBE Si 05Jan2001                  :

 POSCAR: diamond Si
  positions in cartesian coordinates
 exchange correlation table for  LEXCH =        8
   RHO(1)=    0.500       N(1)  =     2000
   RHO(2)=  100.500       N(2)  =     4000

 ion  position               nearest neighbor table
   1  0.000  0.000  0.000-   2 2.38   2 2.38   2 2.38   2 2.38
   2  0.250  0.250  0.250-   1 2.38   1 2.38   1 2.38   1 2.38

  LATTYP: Found a face centered cubic cell.
 ALAT       =     5.5000000000

  Lattice vectors:

 A1 = (   0.0000000000,   2.7500000000,   2.7500000000)
 A2 = (   2.7500000000,   0.0000000000,   2.7500000000)
 A3 = (   2.7500000000,   2.7500000000,   0.0000000000)

Analysis of symmetry for initial positions (statically):
 Subroutine PRICEL returns:
 Original cell was already a primitive cell.

 Routine SETGRP: Setting up the symmetry group for a
 face centered cubic supercell.

 Subroutine GETGRP returns: Found 48 space group operations
 (whereof 24 operations were pure point group operations)
 out of a pool of 48 trial point group operations.

The static configuration has the point symmetry T_d .
 The point group associated with its full space group is O_h .

Analysis of symmetry for dynamics (positions and initial velocities):
 Subroutine PRICEL returns:
 Original cell was already a primitive cell.

 Routine SETGRP: Setting up the symmetry group for a
 face centered cubic supercell.

 Subroutine GETGRP returns: Found 48 space group operations
 (whereof 24 operations were pure point group operations)
 out of a pool of 48 trial point group operations.

The dynamic configuration has the point symmetry T_d .
 The point group associated with its full space group is O_h .

 Subroutine INISYM returns: Found 48 space group operations
 (whereof 24 operations are pure point group operations),
 and found     1 'primitive' translations

 KPOINTS: kpoints for bandstructure W-L-G-X-W-K
  interpolating k-points between supplied coordinates
  k-points in reciprocal lattice
Space group operators:
 irot       det(A)        alpha          n_x          n_y          n_z        tau_x        tau_y        tau_z
    1     1.000000     0.000000     1.000000     0.000000     0.000000     0.000000     0.000000     0.000000
    2     1.000000   120.000000    -0.577350    -0.577350    -0.577350     0.000000     0.000000     0.000000
    3     1.000000   120.000000     0.577350     0.577350     0.577350     0.000000     0.000000     0.000000
    4    -1.000000    90.000000     0.000000     0.000000    -1.000000     0.000000     0.000000     0.000000
    5    -1.000000   180.000000     0.000000     0.707107     0.707107     0.000000     0.000000     0.000000
    6    -1.000000    90.000000     0.000000     1.000000     0.000000     0.000000     0.000000     0.000000
    7     1.000000   180.000000     0.000000     0.000000     1.000000     0.000000     0.000000     0.000000
    8     1.000000   120.000000    -0.577350     0.577350     0.577350     0.000000     0.000000     0.000000
    9     1.000000   120.000000    -0.577350     0.577350    -0.577350     0.000000     0.000000     0.000000
   10    -1.000000    90.000000     0.000000     0.000000     1.000000     0.000000     0.000000     0.000000
   11    -1.000000    90.000000    -1.000000     0.000000     0.000000     0.000000     0.000000     0.000000
   12    -1.000000   180.000000     0.707107     0.000000     0.707107     0.000000     0.000000     0.000000
   13     1.000000   120.000000     0.577350    -0.577350     0.577350     0.000000     0.000000     0.000000
   14     1.000000   120.000000    -0.577350    -0.577350     0.577350     0.000000     0.000000     0.000000
   15     1.000000   180.000000     1.000000     0.000000     0.000000     0.000000     0.000000     0.000000
   16    -1.000000    90.000000     0.000000    -1.000000     0.000000     0.000000     0.000000     0.000000
   17    -1.000000   180.000000     0.707107     0.707107     0.000000     0.000000     0.000000     0.000000
   18    -1.000000    90.000000     1.000000     0.000000     0.000000     0.000000     0.000000     0.000000
   19     1.000000   120.000000     0.577350    -0.577350    -0.577350     0.000000     0.000000     0.000000
   20     1.000000   180.000000     0.000000     1.000000     0.000000     0.000000     0.000000     0.000000
   21     1.000000   120.000000     0.577350     0.577350    -0.577350     0.000000     0.000000     0.000000
   22    -1.000000   180.000000     0.000000    -0.707107     0.707107     0.000000     0.000000     0.000000
   23    -1.000000   180.000000     0.707107    -0.707107     0.000000     0.000000     0.000000     0.000000
   24    -1.000000   180.000000     0.707107     0.000000    -0.707107     0.000000     0.000000     0.000000
   25    -1.000000     0.000000     1.000000     0.000000     0.000000     0.250000     0.250000     0.250000
   26    -1.000000   120.000000    -0.577350    -0.577350    -0.577350     0.250000     0.250000     0.250000
   27    -1.000000   120.000000     0.577350     0.577350     0.577350     0.250000     0.250000     0.250000
   28     1.000000    90.000000     0.000000     0.000000    -1.000000     0.250000     0.250000     0.250000
   29     1.000000   180.000000     0.000000     0.707107     0.707107     0.250000     0.250000     0.250000
   30     1.000000    90.000000     0.000000     1.000000     0.000000     0.250000     0.250000     0.250000
   31    -1.000000   180.000000     0.000000     0.000000     1.000000     0.250000     0.250000     0.250000
   32    -1.000000   120.000000    -0.577350     0.577350     0.577350     0.250000     0.250000     0.250000
   33    -1.000000   120.000000    -0.577350     0.577350    -0.577350     0.250000     0.250000     0.250000
   34     1.000000    90.000000     0.000000     0.000000     1.000000     0.250000     0.250000     0.250000
   35     1.000000    90.000000    -1.000000     0.000000     0.000000     0.250000     0.250000     0.250000
   36     1.000000   180.000000     0.707107     0.000000     0.707107     0.250000     0.250000     0.250000
   37    -1.000000   120.000000     0.577350    -0.577350     0.577350     0.250000     0.250000     0.250000
   38    -1.000000   120.000000    -0.577350    -0.577350     0.577350     0.250000     0.250000     0.250000
   39    -1.000000   180.000000     1.000000     0.000000     0.000000     0.250000     0.250000     0.250000
   40     1.000000    90.000000     0.000000    -1.000000     0.000000     0.250000     0.250000     0.250000
   41     1.000000   180.000000     0.707107     0.707107     0.000000     0.250000     0.250000     0.250000
   42     1.000000    90.000000     1.000000     0.000000     0.000000     0.250000     0.250000     0.250000
   43    -1.000000   120.000000     0.577350    -0.577350    -0.577350     0.250000     0.250000     0.250000
   44    -1.000000   180.000000     0.000000     1.000000     0.000000     0.250000     0.250000     0.250000
   45    -1.000000   120.000000     0.577350     0.577350    -0.577350     0.250000     0.250000     0.250000
   46     1.000000   180.000000     0.000000    -0.707107     0.707107     0.250000     0.250000     0.250000
   47     1.000000   180.000000     0.707107    -0.707107     0.000000     0.250000     0.250000     0.250000
   48     1.000000   180.000000     0.707107     0.000000    -0.707107     0.250000     0.250000     0.250000

 I would recommend the setting:
   dimension x,y,z NGX =    27 NGY =   27 NGZ =   27
 SYSTEM =  Si diamante
 POSCAR =  diamond Si

 Startparameter for this run:
   NWRITE =      2    write-flag & timer
   PREC   = accura    normal or accurate (medium, high low for compatibility)
   ISTART =      0    job   : 0-new  1-cont  2-samecut
   ICHARG =     11    charge: 1-file 2-atom 10-const
   ISPIN  =      1    spin polarized calculation?
   LNONCOLLINEAR =      F non collinear calculations
   LSORBIT =      F    spin-orbit coupling
   INIWAV =      1    electr: 0-lowe 1-rand  2-diag
   LASPH  =      F    aspherical Exc in radial PAW
   METAGGA=      F    non-selfconsistent MetaGGA calc.

 Electronic Relaxation 1
   ENCUT  =  450.0 eV  33.07 Ry    5.75 a.u.   6.73  6.73  6.73*2*pi/ulx,y,z
   ENINI  =  450.0     initial cutoff
   ENAUG  =  322.1 eV  augmentation charge cutoff
   NELM   =     60;   NELMIN=  2; NELMDL=  0     # of ELM steps
   EDIFF  = 0.1E-03   stopping-criterion for ELM
   LREAL  =      F    real-space projection
   NLSPLINE    = F    spline interpolate recip. space projectors
   LCOMPAT=      F    compatible to vasp.4.4
   GGA_COMPAT  = T    GGA compatible to vasp.4.4-vasp.4.6
   LMAXPAW     = -100 max onsite density
   LMAXMIX     =    2 max onsite mixed and CHGCAR
   VOSKOWN=      0    Vosko Wilk Nusair interpolation
   ROPT   =    0.00000
 Ionic relaxation
   EDIFFG = 0.1E-02   stopping-criterion for IOM
   NSW    =      0    number of steps for IOM
   NBLOCK =      1;   KBLOCK =      1    inner block; outer block
   IBRION =     -1    ionic relax: 0-MD 1-quasi-New 2-CG
   NFREE  =      0    steps in history (QN), initial steepest desc. (CG)
   ISIF   =      2    stress and relaxation
   IWAVPR =     10    prediction:  0-non 1-charg 2-wave 3-comb
   ISYM   =      2    0-nonsym 1-usesym 2-fastsym
   LCORR  =      T    Harris-Foulkes like correction to forces

   POTIM  = 0.5000    time-step for ionic-motion
   TEIN   =    0.0    initial temperature
   TEBEG  =    0.0;   TEEND  =   0.0 temperature during run
   SMASS  =  -3.00    Nose mass-parameter (am)
   estimated Nose-frequenzy (Omega)   =  0.10E-29 period in steps =****** mass=  -0.346E-27a.u.
   SCALEE = 1.0000    scale energy and forces
   NPACO  =    256;   APACO  = 16.0  distance and # of slots for P.C.
   PSTRESS=    0.0 pullay stress

  Mass of Ions in am
   POMASS =  28.09
  Ionic Valenz
   ZVAL   =   4.00
  Atomic Wigner-Seitz radii
  virtual crystal weights
   VCA    =   1.00
   NELECT =       8.0000    total number of electrons
   NUPDOWN=      -1.0000    fix difference up-down

 DOS related values:
   EMIN   =  10.00;   EMAX   =-10.00  energy-range for DOS
   EFERMI =   0.00
   ISMEAR =     0;   SIGMA  =   0.10  broadening in eV -4-tet -1-fermi 0-gaus

 Electronic relaxation 2 (details)
   IALGO  =     38    algorithm
   LDIAG  =      T    sub-space diagonalisation (order eigenvalues)
   LSUBROT=      F    optimize rotation matrix (better conditioning)
   TURBO    =      0    0=normal 1=particle mesh
   IRESTART =      0    0=no restart 2=restart with 2 vectors
   NREBOOT  =      0    no. of reboots
   NMIN     =      0    reboot dimension
   EREF     =   0.00    reference energy to select bands
   IMIX   =      4    mixing-type and parameters
     AMIX     =   0.40;   BMIX     =  1.00
     AMIX_MAG =   1.60;   BMIX_MAG =  1.00
     AMIN     =   0.10
[...]
   0.00000000  0.00000000  0.42105263       0.010
   0.00000000  0.00000000  0.47368421       0.010
   0.00000000  0.00000000  0.52631579       0.010
   0.00000000  0.00000000  0.57894737       0.010
   0.00000000  0.00000000  0.63157895       0.010
   0.00000000  0.00000000  0.68421053       0.010
   0.00000000  0.00000000  0.73684211       0.010
   0.00000000  0.00000000  0.78947368       0.010
   0.00000000  0.00000000  0.84210526       0.010
   0.00000000  0.00000000  0.89473684       0.010
   0.00000000  0.00000000  0.94736842       0.010
   0.00000000  0.00000000  1.00000000       0.010
[...]
   0.00000000  0.56578947  0.93421053       0.010
   0.00000000  0.57894737  0.92105263       0.010
   0.00000000  0.59210526  0.90789474       0.010
   0.00000000  0.60526316  0.89473684       0.010
   0.00000000  0.61842105  0.88157895       0.010
   0.00000000  0.63157895  0.86842105       0.010
   0.00000000  0.64473684  0.85526316       0.010
   0.00000000  0.65789474  0.84210526       0.010
   0.00000000  0.67105263  0.82894737       0.010
   0.00000000  0.68421053  0.81578947       0.010
   0.00000000  0.69736842  0.80263158       0.010
   0.00000000  0.71052632  0.78947368       0.010
   0.00000000  0.72368421  0.77631579       0.010
   0.00000000  0.73684211  0.76315789       0.010
   0.00000000  0.75000000  0.75000000       0.010

 k-points in reciprocal lattice and weights: kpoints for bandstructure W-L-G-X-W-K
   0.25000000  0.50000000  0.75000000       0.010
   0.26315789  0.50000000  0.73684211       0.010
   0.27631579  0.50000000  0.72368421       0.010
   0.28947368  0.50000000  0.71052632       0.010
   0.30263158  0.50000000  0.69736842       0.010
   0.31578947  0.50000000  0.68421053       0.010
   0.32894737  0.50000000  0.67105263       0.010
   0.34210526  0.50000000  0.65789474       0.010
   0.35526316  0.50000000  0.64473684       0.010
   0.36842105  0.50000000  0.63157895       0.010
   0.38157895  0.50000000  0.61842105       0.010
   0.39473684  0.50000000  0.60526316       0.010
   0.40789474  0.50000000  0.59210526       0.010
   0.42105263  0.50000000  0.57894737       0.010
   0.43421053  0.50000000  0.56578947       0.010
   0.44736842  0.50000000  0.55263158       0.010
   0.46052632  0.50000000  0.53947368       0.010
   0.47368421  0.50000000  0.52631579       0.010
   0.48684211  0.50000000  0.51315789       0.010
   0.50000000  0.50000000  0.50000000       0.010
   0.50000000  0.50000000  0.50000000       0.010
   0.47368421  0.47368421  0.47368421       0.010
   0.44736842  0.44736842  0.44736842       0.010
   0.42105263  0.42105263  0.42105263       0.010
   0.39473684  0.39473684  0.39473684       0.010
   0.36842105  0.36842105  0.36842105       0.010
   0.34210526  0.34210526  0.34210526       0.010
   0.31578947  0.31578947  0.31578947       0.010
   0.28947368  0.28947368  0.28947368       0.010
   0.26315789  0.26315789  0.26315789       0.010
   0.23684211  0.23684211  0.23684211       0.010
   0.21052632  0.21052632  0.21052632       0.010
   0.18421053  0.18421053  0.18421053       0.010
   0.15789474  0.15789474  0.15789474       0.010
   0.13157895  0.13157895  0.13157895       0.010
   0.10526316  0.10526316  0.10526316       0.010
   0.07894737  0.07894737  0.07894737       0.010
   0.05263158  0.05263158  0.05263158       0.010
   0.02631579  0.02631579  0.02631579       0.010
   0.00000000  0.00000000  0.00000000       0.010
   0.00000000  0.00000000  0.00000000       0.010
   0.02631579  0.02631579  0.00000000       0.010
   0.05263158  0.05263158  0.00000000       0.010
   0.07894737  0.07894737  0.00000000       0.010
   0.10526316  0.10526316  0.00000000       0.010
   0.13157895  0.13157895  0.00000000       0.010
   0.15789474  0.15789474  0.00000000       0.010
   0.18421053  0.18421053  0.00000000       0.010
   0.21052632  0.21052632  0.00000000       0.010
   0.23684211  0.23684211  0.00000000       0.010
   0.26315789  0.26315789  0.00000000       0.010
   0.28947368  0.28947368  0.00000000       0.010
   0.31578947  0.31578947  0.00000000       0.010
   0.34210526  0.34210526  0.00000000       0.010
   0.36842105  0.36842105  0.00000000       0.010
   0.39473684  0.39473684  0.00000000       0.010
   0.42105263  0.42105263  0.00000000       0.010
   0.44736842  0.44736842  0.00000000       0.010
   0.47368421  0.47368421  0.00000000       0.010
   0.50000000  0.50000000  0.00000000       0.010
[...]
   0.75000000  0.46710526  0.28289474       0.010
   0.75000000  0.46052632  0.28947368       0.010
   0.75000000  0.45394737  0.29605263       0.010
   0.75000000  0.44736842  0.30263158       0.010
   0.75000000  0.44078947  0.30921053       0.010
   0.75000000  0.43421053  0.31578947       0.010
   0.75000000  0.42763158  0.32236842       0.010
   0.75000000  0.42105263  0.32894737       0.010
   0.75000000  0.41447368  0.33552632       0.010
   0.75000000  0.40789474  0.34210526       0.010
   0.75000000  0.40131579  0.34868421       0.010
   0.75000000  0.39473684  0.35526316       0.010
   0.75000000  0.38815789  0.36184211       0.010
   0.75000000  0.38157895  0.36842105       0.010
   0.75000000  0.37500000  0.37500000       0.010

 position of ions in fractional coordinates (direct lattice)
   0.00000000  0.00000000  0.00000000
   0.25000000  0.25000000  0.25000000

 position of ions in cartesian coordinates  (Angst):
   0.00000000  0.00000000  0.00000000
   1.37500000  1.37500000  1.37500000

 k-point  1 :   0.2500 0.5000 0.7500  plane waves:     892
 k-point  2 :   0.2632 0.5000 0.7368  plane waves:     892
 k-point  3 :   0.2763 0.5000 0.7237  plane waves:     898
 k-point  4 :   0.2895 0.5000 0.7105  plane waves:     902
 k-point  5 :   0.3026 0.5000 0.6974  plane waves:     902
 k-point  6 :   0.3158 0.5000 0.6842  plane waves:     902
 k-point  7 :   0.3289 0.5000 0.6711  plane waves:     902
 k-point  8 :   0.3421 0.5000 0.6579  plane waves:     898
 k-point  9 :   0.3553 0.5000 0.6447  plane waves:     896
 k-point 10 :   0.3684 0.5000 0.6316  plane waves:     890
 k-point 11 :   0.3816 0.5000 0.6184  plane waves:     890
 k-point 12 :   0.3947 0.5000 0.6053  plane waves:     896
 k-point 13 :   0.4079 0.5000 0.5921  plane waves:     900
 k-point 14 :   0.4211 0.5000 0.5789  plane waves:     902
 k-point 15 :   0.4342 0.5000 0.5658  plane waves:     900
 k-point 16 :   0.4474 0.5000 0.5526  plane waves:     896
 k-point 17 :   0.4605 0.5000 0.5395  plane waves:     894
 k-point 18 :   0.4737 0.5000 0.5263  plane waves:     896
 k-point 19 :   0.4868 0.5000 0.5132  plane waves:     894
 k-point 20 :   0.5000 0.5000 0.5000  plane waves:     886
 k-point 21 :   0.5000 0.5000 0.5000  plane waves:     886
 k-point 22 :   0.4737 0.4737 0.4737  plane waves:     899
 k-point 23 :   0.4474 0.4474 0.4474  plane waves:     899
 k-point 24 :   0.4211 0.4211 0.4211  plane waves:     893
 k-point 25 :   0.3947 0.3947 0.3947  plane waves:     899
 k-point 26 :   0.3684 0.3684 0.3684  plane waves:     905
 k-point 27 :   0.3421 0.3421 0.3421  plane waves:     899
 k-point 28 :   0.3158 0.3158 0.3158  plane waves:     899
 k-point 29 :   0.2895 0.2895 0.2895  plane waves:     899
 k-point 30 :   0.2632 0.2632 0.2632  plane waves:     905
 k-point 31 :   0.2368 0.2368 0.2368  plane waves:     908
 k-point 32 :   0.2105 0.2105 0.2105  plane waves:     914
 k-point 33 :   0.1842 0.1842 0.1842  plane waves:     914
 k-point 34 :   0.1579 0.1579 0.1579  plane waves:     911
 k-point 35 :   0.1316 0.1316 0.1316  plane waves:     914
 k-point 36 :   0.1053 0.1053 0.1053  plane waves:     914
 k-point 37 :   0.0789 0.0789 0.0789  plane waves:     914
 k-point 38 :   0.0526 0.0526 0.0526  plane waves:     917
 k-point 39 :   0.0263 0.0263 0.0263  plane waves:     905
 k-point 40 :   0.0000 0.0000 0.0000  plane waves:     893
 k-point 41 :   0.0000 0.0000 0.0000  plane waves:     893
 k-point 42 :   0.0263 0.0263 0.0000  plane waves:     901
 k-point 43 :   0.0526 0.0526 0.0000  plane waves:     909
 k-point 44 :   0.0789 0.0789 0.0000  plane waves:     909
 k-point 45 :   0.1053 0.1053 0.0000  plane waves:     901
 k-point 46 :   0.1316 0.1316 0.0000  plane waves:     901
 k-point 47 :   0.1579 0.1579 0.0000  plane waves:     905
 k-point 48 :   0.1842 0.1842 0.0000  plane waves:     909
 k-point 49 :   0.2105 0.2105 0.0000  plane waves:     897
 k-point 50 :   0.2368 0.2368 0.0000  plane waves:     897
 k-point 51 :   0.2632 0.2632 0.0000  plane waves:     894
 k-point 52 :   0.2895 0.2895 0.0000  plane waves:     894
 k-point 53 :   0.3158 0.3158 0.0000  plane waves:     894
 k-point 54 :   0.3421 0.3421 0.0000  plane waves:     906
 k-point 55 :   0.3684 0.3684 0.0000  plane waves:     902
 k-point 56 :   0.3947 0.3947 0.0000  plane waves:     902
 k-point 57 :   0.4211 0.4211 0.0000  plane waves:     902
 k-point 58 :   0.4474 0.4474 0.0000  plane waves:     914
 k-point 59 :   0.4737 0.4737 0.0000  plane waves:     926
 k-point 60 :   0.5000 0.5000 0.0000  plane waves:     934
[...]
 k-point 85 :   0.7500 0.4737 0.2763  plane waves:     898
 k-point 86 :   0.7500 0.4671 0.2829  plane waves:     904
 k-point 87 :   0.7500 0.4605 0.2895  plane waves:     904
 k-point 88 :   0.7500 0.4539 0.2961  plane waves:     904
 k-point 89 :   0.7500 0.4474 0.3026  plane waves:     904
 k-point 90 :   0.7500 0.4408 0.3092  plane waves:     905
 k-point 91 :   0.7500 0.4342 0.3158  plane waves:     905
 k-point 92 :   0.7500 0.4276 0.3224  plane waves:     904
 k-point 93 :   0.7500 0.4211 0.3289  plane waves:     904
 k-point 94 :   0.7500 0.4145 0.3355  plane waves:     904
 k-point 95 :   0.7500 0.4079 0.3421  plane waves:     904
 k-point 96 :   0.7500 0.4013 0.3487  plane waves:     906
 k-point 97 :   0.7500 0.3947 0.3553  plane waves:     906
 k-point 98 :   0.7500 0.3882 0.3618  plane waves:     904
 k-point 99 :   0.7500 0.3816 0.3684  plane waves:     902
 k-point ** :   0.7500 0.3750 0.3750  plane waves:     902

 maximum and minimum number of plane-waves per node :       934      886

 maximum number of plane-waves:       934
 maximum index in each direction:
   IXMAX=    6   IYMAX=    6   IZMAX=    6
   IXMIN=   -7   IYMIN=   -7   IZMIN=   -7

 NGX is ok and might be reduce to  28
 NGY is ok and might be reduce to  28
 NGZ is ok and might be reduce to  28

 serial   3D FFT for wavefunctions
 parallel 3D FFT for charge:
    minimum data exchange during FFTs selected (reduces bandwidth)

 initial charge density was supplied:
 number of electron       7.9999999 magnetization
 keeping initial charge density in first step

 Maximum index for augmentation-charges         4275 (set IRDMAX)

 First call to EWALD:  gamma=   0.512
 Maximum number of real-space cells 3x 3x 3
 Maximum number of reciprocal cells 3x 3x 3

 FEWALD executed in parallel

----------------------------------------- Iteration    1(   1)  ---------------------------------------

 eigenvalue-minimisations  :  1600
 total energy-change (2. order) : 0.6038403E+01  (-0.3065270E+03)
 number of electron       7.9999999 magnetization
 augmentation part        7.9999999 magnetization

 Free energy of the ion-electron system (eV)
  alpha Z        PSCENC =         3.23732588
  Ewald energy   TEWEN  =      -225.65453461
  -Hartree energ DENC   =       -15.37331520
  -exchange      EXHF   =         0.00000000
  -V(xc)+E(xc)   XCENC  =       -18.13770262
  PAW double counting   =       800.87287296     -765.87716001
  entropy T*S    EENTRO =        -0.00340016
  eigenvalues    EBANDS =        20.84238930
  atomic energy  EATOM  =       206.13192747
  Solvation  Ediel_sol  =         0.00000000
  free energy    TOTEN  =         6.03840301 eV

  energy without entropy =        6.04180317  energy(sigma->0) =        6.04010309

[...]

 eigenvalue-minimisations  :  2448
 total energy-change (2. order) :-0.1599632E+02  (-0.1546404E+02)
 number of electron       7.9999999 magnetization
 augmentation part        7.9999999 magnetization

[...]

----------------------------------------- Iteration    1(   6)  ---------------------------------------

 eigenvalue-minimisations  :  2160
 total energy-change (2. order) :-0.3538310E-07  (-0.3515725E-07)
 number of electron       7.9999999 magnetization
 augmentation part        7.9999999 magnetization

 Free energy of the ion-electron system (eV)
  alpha Z        PSCENC =         3.23732588
  Ewald energy   TEWEN  =      -225.65453461
  -Hartree energ DENC   =       -15.37331520
  -exchange      EXHF   =         0.00000000
  -V(xc)+E(xc)   XCENC  =       -18.13770262
  PAW double counting   =       800.87287296     -765.87716001
  entropy T*S    EENTRO =        -0.00000014
  eigenvalues    EBANDS =         4.59668447
  atomic energy  EATOM  =       206.13192747
  Solvation  Ediel_sol  =         0.00000000
  free energy    TOTEN  =       -10.20390181 eV

  energy without entropy =      -10.20390166  energy(sigma->0) =      -10.20390173

 average (electrostatic) potential at core
  the test charge radii are     0.9892
  (the norm of the test charge is              1.0000)
       1 -83.6718       2 -83.6718

 E-fermi :   5.7766     XC(G=0):  -9.2613     alpha+bet :-11.5327

 k-point     1 :       0.2500    0.5000    0.7500
  band No.  band energies     occupation
      1      -2.0984      2.00000
      2      -2.0984      2.00000
      3       1.7567      2.00000
      4       1.7567      2.00000
      5       9.7186      0.00000
      6       9.7186      0.00000
      7      10.3179      0.00000
      8      10.3179      0.00000

[...]

 k-point   100 :       0.7500    0.3750    0.3750
  band No.  band energies     occupation
      1      -2.6612      2.00000
      2      -1.6697      2.00000
      3       1.3251      2.00000
      4       3.1090      2.00000
      5       6.7039      0.00000
      6       9.5447      0.00000
      7      12.7538      0.00000
      8      13.2887      0.00000

 soft charge-density along one line, spin component           1
         0         1         2         3         4         5         6         7         8         9
 total charge-density along one line

------------------------ aborting loop because EDIFF is reached ----------------------------------------

  FORCE on cell =-STRESS in cart. coord.  units (eV):
  Direction    XX          YY          ZZ          XY          YZ          ZX
  Alpha Z     3.23733     3.23733     3.23733
  Ewald     -75.21821   -75.21821   -75.21821     0.00000     0.00000    -0.00000
  Hartree     5.30795     5.30795     5.30795     0.00000     0.00000     0.00000
  E(xc)     -25.15338   -25.15338   -25.15338     0.00000     0.00000     0.00000
  Local     -30.04344   -30.04344   -30.04344     0.00001     0.00001     0.00001
  n-local    76.56239    78.55401    74.07199    -1.05912    -1.35571    -0.81472
  augment   -11.37570   -11.37570   -11.37570    -0.00001    -0.00001    -0.00001
  Kinetic    58.74029    56.28626    55.67763    -1.46546    -2.04859    -1.31565
  Fock        0.00000     0.00000     0.00000     0.00000     0.00000     0.00000
  Total       0.05207     0.05207     0.05207    -0.00000     0.00000    -0.00000
  in kB       2.00589     2.00589     2.00589    -0.00000     0.00000    -0.00000

 VOLUME and BASIS-vectors are now :
  energy-cutoff  :      450.00
  volume of cell :       41.59
      direct lattice vectors                 reciprocal lattice vectors
     0.000000000  2.750000000  2.750000000    -0.181818182  0.181818182  0.181818182
     2.750000000  0.000000000  2.750000000     0.181818182 -0.181818182  0.181818182
     2.750000000  2.750000000  0.000000000     0.181818182  0.181818182 -0.181818182

  length of vectors
     3.889087297  3.889087297  3.889087297     0.314918329  0.314918329  0.314918329

 FORCES acting on ions
    electron-ion (+dipol)            ewald-force                    non-local-force                 convergence-correction
   0.675E-08 0.675E-08 0.630E-08   -.246E-14 0.368E-15 0.368E-15   0.625E-16 0.555E-16 0.278E-16   0.491E-09 0.491E-09 0.491E-09
   -.675E-08 -.675E-08 -.630E-08   0.230E-14 -.104E-14 -.778E-15   -.451E-16 -.625E-16 -.243E-16   -.491E-09 -.491E-09 -.491E-09
   0.917E-13 0.354E-13 -.103E-13   -.158E-15 -.674E-15 -.410E-15   0.173E-16 -.694E-17 0.347E-17   0.372E-13 0.563E-13 0.438E-13

 POSITION                                       TOTAL-FORCE (eV/Angst)
      0.00000      0.00000      0.00000         0.000000     -0.000000      0.000000
      1.37500      1.37500      1.37500        -0.000000      0.000000     -0.000000
    total drift:                                0.000000      0.000000      0.000000

  FREE ENERGIE OF THE ION-ELECTRON SYSTEM (eV)
  free  energy   TOTEN  =       -10.20390181 eV

  energy  without entropy=      -10.20390166  energy(sigma->0) =      -10.20390173

 writing wavefunctions