 vasp.5.4.1 24Jun15 (build Jul 19 2016 16:50:41) complex

 executed on           IFC91_ompi date 2019.10.10  11:12:02

 INCAR:
 POTCAR:    PAW_PBE Si 05Jan2001
 POTCAR:    PAW_PBE Si 05Jan2001
   VRHFIN = Si: s2p2

   TITEL  = PAW_PBE Si 05Jan2001
   POMASS =   28.085; ZVAL   =    4.000    mass and valenz
   ENMAX  =  245.345; ENMIN  =  184.009 eV

  PAW_PBE Si 05Jan2001                  :

 POSCAR: Si HCP
  positions in direct lattice
 exchange correlation table for  LEXCH =        8
   RHO(1)=    0.500       N(1)  =     2000
   RHO(2)=  100.500       N(2)  =     4000

 ion  position               nearest neighbor table
   1  0.000  0.000  0.000-   2 2.52   2 2.52   2 2.52   2 2.52   2 2.52   2 2.52
   2  0.333  0.667  0.500-   1 2.52   1 2.52   1 2.52   1 2.52   1 2.52   1 2.52

  LATTYP: Found a hexagonal cell.
 ALAT       =     2.5200000000
 C/A-ratio  =     1.6329900000

  Lattice vectors:

 A1 = (   2.5200000000,   0.0000000000,   0.0000000000)
 A2 = (  -1.2600000000,   2.1823840175,   0.0000000000)
 A3 = (   0.0000000000,   0.0000000000,   4.1151348000)

Analysis of symmetry for initial positions (statically):
 Subroutine PRICEL returns:
 Original cell was already a primitive cell.

 Routine SETGRP: Setting up the symmetry group for a
 hexagonal supercell.

 Subroutine GETGRP returns: Found 24 space group operations
 (whereof 12 operations were pure point group operations)
 out of a pool of 24 trial point group operations.

The static configuration has the point symmetry D_3h.
 The point group associated with its full space group is D_6h.

Analysis of symmetry for dynamics (positions and initial velocities):
 Subroutine PRICEL returns:
 Original cell was already a primitive cell.

 Routine SETGRP: Setting up the symmetry group for a
 hexagonal supercell.

 Subroutine GETGRP returns: Found 24 space group operations
 (whereof 12 operations were pure point group operations)
 out of a pool of 24 trial point group operations.

The dynamic configuration has the point symmetry D_3h.
 The point group associated with its full space group is D_6h.

 Subroutine INISYM returns: Found 24 space group operations
 (whereof 12 operations are pure point group operations),
 and found     1 'primitive' translations

 KPOINTS: K-Points

Automatic generation of k-mesh.
Space group operators:
 irot       det(A)        alpha          n_x          n_y          n_z        tau_x        tau_y        tau_z
    1     1.000000     0.000000     1.000000     0.000000     0.000000     0.000000     0.000000     0.000000
    2    -1.000000    60.000000     0.000000     0.000000    -1.000000     0.000000     0.000000     0.000000
    3     1.000000   120.000000     0.000000     0.000000    -1.000000     0.000000     0.000000     0.000000
    4    -1.000000   180.000000     0.000000     0.000000     1.000000     0.000000     0.000000     0.000000
    5     1.000000   120.000000     0.000000     0.000000     1.000000     0.000000     0.000000     0.000000
    6    -1.000000    60.000000     0.000000     0.000000     1.000000     0.000000     0.000000     0.000000
    7    -1.000000   180.000000     1.000000     0.000000     0.000000     0.000000     0.000000     0.000000
    8     1.000000   180.000000     0.866025    -0.500000     0.000000     0.000000     0.000000     0.000000
    9    -1.000000   180.000000     0.500000    -0.866025     0.000000     0.000000     0.000000     0.000000
   10     1.000000   180.000000     0.000000     1.000000     0.000000     0.000000     0.000000     0.000000
   11    -1.000000   180.000000    -0.500000    -0.866025     0.000000     0.000000     0.000000     0.000000
   12     1.000000   180.000000     0.866025     0.500000     0.000000     0.000000     0.000000     0.000000
   13    -1.000000     0.000000     1.000000     0.000000     0.000000     0.333333     0.666667     0.500000
   14     1.000000    60.000000     0.000000     0.000000    -1.000000     0.333333     0.666667     0.500000
   15    -1.000000   120.000000     0.000000     0.000000    -1.000000     0.333333     0.666667     0.500000
   16     1.000000   180.000000     0.000000     0.000000     1.000000     0.333333     0.666667     0.500000
   17    -1.000000   120.000000     0.000000     0.000000     1.000000     0.333333     0.666667     0.500000
   18     1.000000    60.000000     0.000000     0.000000     1.000000     0.333333     0.666667     0.500000
   19     1.000000   180.000000     1.000000     0.000000     0.000000     0.333333     0.666667     0.500000
   20    -1.000000   180.000000     0.866025    -0.500000     0.000000     0.333333     0.666667     0.500000
   21     1.000000   180.000000     0.500000    -0.866025     0.000000     0.333333     0.666667     0.500000
   22    -1.000000   180.000000     0.000000     1.000000     0.000000     0.333333     0.666667     0.500000
   23     1.000000   180.000000    -0.500000    -0.866025     0.000000     0.333333     0.666667     0.500000
   24    -1.000000   180.000000     0.866025     0.500000     0.000000     0.333333     0.666667     0.500000

 Subroutine IBZKPT returns following result:

 Found     36 irreducible k-points:

 Following reciprocal coordinates:
            Coordinates               Weight
  0.083333  0.083333  0.083333     96.000000
  0.250000  0.083333  0.083333    192.000000
  0.416667  0.083333  0.083333    192.000000
 -0.416667  0.083333  0.083333    192.000000
 -0.250000  0.083333  0.083333    192.000000
 -0.083333  0.083333  0.083333     96.000000
  0.250000  0.250000  0.083333     96.000000
  0.416667  0.250000  0.083333    192.000000
 -0.416667  0.250000  0.083333    192.000000
 -0.250000  0.250000  0.083333     96.000000
  0.416667  0.416667  0.083333     96.000000
 -0.416667  0.416667  0.083333     96.000000
  0.083333  0.083333  0.250000     96.000000
  0.250000  0.083333  0.250000    192.000000
  0.416667  0.083333  0.250000    192.000000
 -0.416667  0.083333  0.250000    192.000000
 -0.250000  0.083333  0.250000    192.000000
 -0.083333  0.083333  0.250000     96.000000
  0.250000  0.250000  0.250000     96.000000
  0.416667  0.250000  0.250000    192.000000
 -0.416667  0.250000  0.250000    192.000000
 -0.250000  0.250000  0.250000     96.000000
  0.416667  0.416667  0.250000     96.000000
 -0.416667  0.416667  0.250000     96.000000
  0.083333  0.083333  0.416667     96.000000
  0.250000  0.083333  0.416667    192.000000
  0.416667  0.083333  0.416667    192.000000
 -0.416667  0.083333  0.416667    192.000000
 -0.250000  0.083333  0.416667    192.000000
 -0.083333  0.083333  0.416667     96.000000
  0.250000  0.250000  0.416667     96.000000
  0.416667  0.250000  0.416667    192.000000
 -0.416667  0.250000  0.416667    192.000000
 -0.250000  0.250000  0.416667     96.000000
  0.416667  0.416667  0.416667     96.000000
 -0.416667  0.416667  0.416667     96.000000

 Following cartesian coordinates:
            Coordinates               Weight
  0.083333  0.144338  0.051031     96.000000
  0.250000  0.240563  0.051031    192.000000
  0.416667  0.336788  0.051031    192.000000
 -0.416667 -0.144338  0.051031    192.000000
 -0.250000 -0.048113  0.051031    192.000000
 -0.083333  0.048113  0.051031     96.000000
  0.250000  0.433013  0.051031     96.000000
  0.416667  0.529238  0.051031    192.000000
 -0.416667  0.048113  0.051031    192.000000
 -0.250000  0.144338  0.051031     96.000000
  0.416667  0.721688  0.051031     96.000000
 -0.416667  0.240563  0.051031     96.000000
  0.083333  0.144338  0.153093     96.000000
  0.250000  0.240563  0.153093    192.000000
  0.416667  0.336788  0.153093    192.000000
 -0.416667 -0.144338  0.153093    192.000000
 -0.250000 -0.048113  0.153093    192.000000
 -0.083333  0.048113  0.153093     96.000000
  0.250000  0.433013  0.153093     96.000000
  0.416667  0.529238  0.153093    192.000000
 -0.416667  0.048113  0.153093    192.000000
 -0.250000  0.144338  0.153093     96.000000
  0.416667  0.721688  0.153093     96.000000
 -0.416667  0.240563  0.153093     96.000000
  0.083333  0.144338  0.255156     96.000000
  0.250000  0.240563  0.255156    192.000000
  0.416667  0.336788  0.255156    192.000000
 -0.416667 -0.144338  0.255156    192.000000
 -0.250000 -0.048113  0.255156    192.000000
 -0.083333  0.048113  0.255156     96.000000
  0.250000  0.433013  0.255156     96.000000
  0.416667  0.529238  0.255156    192.000000
 -0.416667  0.048113  0.255156    192.000000
 -0.250000  0.144338  0.255156     96.000000
  0.416667  0.721688  0.255156     96.000000
 -0.416667  0.240563  0.255156     96.000000

 I would recommend the setting:
   dimension x,y,z NGX =    17 NGY =   17 NGZ =   28
 SYSTEM =  Si beta-tin
 POSCAR =  Si HCP

 Startparameter for this run:
   NWRITE =      2    write-flag & timer
   PREC   = accura    normal or accurate (medium, high low for compatibility)
   ISTART =      0    job   : 0-new  1-cont  2-samecut
   ICHARG =      2    charge: 1-file 2-atom 10-const
   ISPIN  =      1    spin polarized calculation?
   LNONCOLLINEAR =      F non collinear calculations
   LSORBIT =      F    spin-orbit coupling
   INIWAV =      1    electr: 0-lowe 1-rand  2-diag
   LASPH  =      F    aspherical Exc in radial PAW
   METAGGA=      F    non-selfconsistent MetaGGA calc.

 Electronic Relaxation 1
   ENCUT  =  450.0 eV  33.07 Ry    5.75 a.u.   4.36  4.36  7.12*2*pi/ulx,y,z
   ENINI  =  450.0     initial cutoff
   ENAUG  =  322.1 eV  augmentation charge cutoff
   NELM   =     60;   NELMIN=  2; NELMDL= -5     # of ELM steps
   EDIFF  = 0.1E-04   stopping-criterion for ELM
   LREAL  =      F    real-space projection
   NLSPLINE    = F    spline interpolate recip. space projectors
   LCOMPAT=      F    compatible to vasp.4.4
   GGA_COMPAT  = T    GGA compatible to vasp.4.4-vasp.4.6
   LMAXPAW     = -100 max onsite density
   LMAXMIX     =    2 max onsite mixed and CHGCAR
   VOSKOWN=      0    Vosko Wilk Nusair interpolation
   ROPT   =    0.00000
 Ionic relaxation
   EDIFFG = -.1E-01   stopping-criterion for IOM
   NSW    =    100    number of steps for IOM
   NBLOCK =      1;   KBLOCK =    100    inner block; outer block
   IBRION =      2    ionic relax: 0-MD 1-quasi-New 2-CG
   NFREE  =      1    steps in history (QN), initial steepest desc. (CG)
   ISIF   =      4    stress and relaxation
   IWAVPR =     11    prediction:  0-non 1-charg 2-wave 3-comb
   ISYM   =      2    0-nonsym 1-usesym 2-fastsym
   LCORR  =      T    Harris-Foulkes like correction to forces

   POTIM  = 0.5000    time-step for ionic-motion
   TEIN   =    0.0    initial temperature
   TEBEG  =    0.0;   TEEND  =   0.0 temperature during run
   SMASS  =  -3.00    Nose mass-parameter (am)
   estimated Nose-frequenzy (Omega)   =  0.10E-29 period in steps =****** mass=  -0.145E-27a.u.
   SCALEE = 1.0000    scale energy and forces
   NPACO  =    256;   APACO  = 16.0  distance and # of slots for P.C.
   PSTRESS=    0.0 pullay stress

  Mass of Ions in am
   POMASS =  28.09
  Ionic Valenz
   ZVAL   =   4.00
  Atomic Wigner-Seitz radii
  virtual crystal weights
   VCA    =   1.00
   NELECT =       8.0000    total number of electrons
   NUPDOWN=      -1.0000    fix difference up-down

 DOS related values:
[...]
   0.25000000  0.43301270  0.15309341       0.019
   0.41666667  0.52923775  0.15309341       0.037
  -0.41666667  0.04811252  0.15309341       0.037
  -0.25000000  0.14433757  0.15309341       0.019
   0.41666667  0.72168784  0.15309341       0.019
  -0.41666667  0.24056261  0.15309341       0.019
   0.08333333  0.14433757  0.25515568       0.019
   0.25000000  0.24056261  0.25515568       0.037
   0.41666667  0.33678766  0.25515568       0.037
  -0.41666667 -0.14433757  0.25515568       0.037
  -0.25000000 -0.04811252  0.25515568       0.037
  -0.08333333  0.04811252  0.25515568       0.019
   0.25000000  0.43301270  0.25515568       0.019
   0.41666667  0.52923775  0.25515568       0.037
  -0.41666667  0.04811252  0.25515568       0.037
  -0.25000000  0.14433757  0.25515568       0.019
   0.41666667  0.72168784  0.25515568       0.019
  -0.41666667  0.24056261  0.25515568       0.019

 k-points in reciprocal lattice and weights: K-Points
   0.08333333  0.08333333  0.08333333       0.019
   0.25000000  0.08333333  0.08333333       0.037
   0.41666667  0.08333333  0.08333333       0.037
  -0.41666667  0.08333333  0.08333333       0.037
  -0.25000000  0.08333333  0.08333333       0.037
  -0.08333333  0.08333333  0.08333333       0.019
   0.25000000  0.25000000  0.08333333       0.019
   0.41666667  0.25000000  0.08333333       0.037
  -0.41666667  0.25000000  0.08333333       0.037
  -0.25000000  0.25000000  0.08333333       0.019
   0.41666667  0.41666667  0.08333333       0.019
  -0.41666667  0.41666667  0.08333333       0.019
   0.08333333  0.08333333  0.25000000       0.019
   0.25000000  0.08333333  0.25000000       0.037
   0.41666667  0.08333333  0.25000000       0.037
  -0.41666667  0.08333333  0.25000000       0.037
  -0.25000000  0.08333333  0.25000000       0.037
  -0.08333333  0.08333333  0.25000000       0.019
   0.25000000  0.25000000  0.25000000       0.019
   0.41666667  0.25000000  0.25000000       0.037
  -0.41666667  0.25000000  0.25000000       0.037
  -0.25000000  0.25000000  0.25000000       0.019
   0.41666667  0.41666667  0.25000000       0.019
  -0.41666667  0.41666667  0.25000000       0.019
   0.08333333  0.08333333  0.41666667       0.019
   0.25000000  0.08333333  0.41666667       0.037
   0.41666667  0.08333333  0.41666667       0.037
  -0.41666667  0.08333333  0.41666667       0.037
  -0.25000000  0.08333333  0.41666667       0.037
  -0.08333333  0.08333333  0.41666667       0.019
   0.25000000  0.25000000  0.41666667       0.019
   0.41666667  0.25000000  0.41666667       0.037
  -0.41666667  0.25000000  0.41666667       0.037
  -0.25000000  0.25000000  0.41666667       0.019
   0.41666667  0.41666667  0.41666667       0.019
  -0.41666667  0.41666667  0.41666667       0.019

 position of ions in fractional coordinates (direct lattice)
   0.00000000  0.00000000  0.00000000
   0.33333333  0.66666667  0.50000000

 position of ions in cartesian coordinates  (Angst):
   0.00000000  0.00000000  0.00000000
  -0.00000000  1.45492268  2.05756740

 k-point  1 :   0.0833 0.0833 0.0833  plane waves:     499
 k-point  2 :   0.2500 0.0833 0.0833  plane waves:     488
 k-point  3 :   0.4167 0.0833 0.0833  plane waves:     486
 k-point  4 :  -0.4167 0.0833 0.0833  plane waves:     485
 k-point  5 :  -0.2500 0.0833 0.0833  plane waves:     492
 k-point  6 :  -0.0833 0.0833 0.0833  plane waves:     510
 k-point  7 :   0.2500 0.2500 0.0833  plane waves:     493
 k-point  8 :   0.4167 0.2500 0.0833  plane waves:     487
 k-point  9 :  -0.4167 0.2500 0.0833  plane waves:     492
 k-point 10 :  -0.2500 0.2500 0.0833  plane waves:     489
 k-point 11 :   0.4167 0.4167 0.0833  plane waves:     483
 k-point 12 :  -0.4167 0.4167 0.0833  plane waves:     483
 k-point 13 :   0.0833 0.0833 0.2500  plane waves:     502
 k-point 14 :   0.2500 0.0833 0.2500  plane waves:     493
 k-point 15 :   0.4167 0.0833 0.2500  plane waves:     488
 k-point 16 :  -0.4167 0.0833 0.2500  plane waves:     487
 k-point 17 :  -0.2500 0.0833 0.2500  plane waves:     491
 k-point 18 :  -0.0833 0.0833 0.2500  plane waves:     501
 k-point 19 :   0.2500 0.2500 0.2500  plane waves:     491
 k-point 20 :   0.4167 0.2500 0.2500  plane waves:     488
 k-point 21 :  -0.4167 0.2500 0.2500  plane waves:     491
 k-point 22 :  -0.2500 0.2500 0.2500  plane waves:     490
 k-point 23 :   0.4167 0.4167 0.2500  plane waves:     491
 k-point 24 :  -0.4167 0.4167 0.2500  plane waves:     481
 k-point 25 :   0.0833 0.0833 0.4167  plane waves:     495
 k-point 26 :   0.2500 0.0833 0.4167  plane waves:     491
 k-point 27 :   0.4167 0.0833 0.4167  plane waves:     490
 k-point 28 :  -0.4167 0.0833 0.4167  plane waves:     491
 k-point 29 :  -0.2500 0.0833 0.4167  plane waves:     491
 k-point 30 :  -0.0833 0.0833 0.4167  plane waves:     497
 k-point 31 :   0.2500 0.2500 0.4167  plane waves:     490
 k-point 32 :   0.4167 0.2500 0.4167  plane waves:     488
 k-point 33 :  -0.4167 0.2500 0.4167  plane waves:     493
 k-point 34 :  -0.2500 0.2500 0.4167  plane waves:     496
 k-point 35 :   0.4167 0.4167 0.4167  plane waves:     490
 k-point 36 :  -0.4167 0.4167 0.4167  plane waves:     492

 maximum and minimum number of plane-waves per node :       510      481

 maximum number of plane-waves:       510
 maximum index in each direction:
   IXMAX=    4   IYMAX=    4   IZMAX=    7
   IXMIN=   -4   IYMIN=   -4   IZMIN=   -7

 NGX is ok and might be reduce to  18
 NGY is ok and might be reduce to  18
 WARNING: aliasing errors must be expected set NGZ to  30 to avoid them
 aliasing errors are usually negligible using standard VASP settings
 and one can safely disregard these warnings

 serial   3D FFT for wavefunctions
 parallel 3D FFT for charge:
    minimum data exchange during FFTs selected (reduces bandwidth)

 Broyden mixing: mesh for mixing (old mesh)
   NGX =  9   NGY =  9   NGZ = 15
  (NGX  = 36   NGY  = 36   NGZ  = 56)
  gives a total of   1215 points

 initial charge density was supplied:
 charge density of overlapping atoms calculated
 number of electron       8.0000000 magnetization
 keeping initial charge density in first step

 Maximum index for augmentation-charges         3239 (set IRDMAX)

 First call to EWALD:  gamma=   0.627
 Maximum number of real-space cells 3x 3x 2
 Maximum number of reciprocal cells 3x 3x 4

 FEWALD executed in parallel

----------------------------------------- Iteration    1(   1)  ---------------------------------------

 eigenvalue-minimisations  :   592
 total energy-change (2. order) : 0.4963478E+01  (-0.3547527E+03)
 number of electron       8.0000000 magnetization
 augmentation part        8.0000000 magnetization

 Free energy of the ion-electron system (eV)
  alpha Z        PSCENC =         5.94974999
  Ewald energy   TEWEN  =      -296.39431912
  -Hartree energ DENC   =        -0.49615912
  -exchange      EXHF   =         0.00000000
  -V(xc)+E(xc)   XCENC  =       -16.21807080
  PAW double counting   =       176.24759923     -141.06103558
  entropy T*S    EENTRO =        -0.00115418
  eigenvalues    EBANDS =        70.80494029
  atomic energy  EATOM  =       206.13192747
  Solvation  Ediel_sol  =         0.00000000
  free energy    TOTEN  =         4.96347819 eV

  energy without entropy =        4.96463237  energy(sigma->0) =        4.96405528

[...]

 eigenvalue-minimisations  :   816
 total energy-change (2. order) :-0.1415833E+02  (-0.1357171E+02)
 number of electron       8.0000000 magnetization
 augmentation part        8.0000000 magnetization

[...]

 Broyden mixing:
  rms(total) = 0.60431E+00    rms(broyden)= 0.60431E+00
  rms(prec ) = 0.65622E+00
  weight for this iteration     100.00

[...]

 eigenvalues of (default mixing * dielectric matrix)
  average eigenvalue GAMMA=   2.2602
  2.2602

[...]

 average (electrostatic) potential at core
  the test charge radii are     0.9892
  (the norm of the test charge is              1.0000)
       1 -76.2755       2 -76.2755

 E-fermi :  13.7349     XC(G=0): -12.2166     alpha+bet :-21.1956

 k-point     1 :       0.0833    0.0833    0.0833
  band No.  band energies     occupation
      1      -2.4870      2.00000
      2       4.5013      2.00000
      3       7.2390      2.00000
      4      19.0820      0.00000
      5      19.1688      0.00000
      6      25.0411      0.00000
      7      25.2034      0.00000
      8      25.3870      0.00000

[...]

 soft charge-density along one line, spin component           1
         0         1         2         3         4         5         6         7         8         9
 total charge-density along one line

------------------------ aborting loop because EDIFF is reached ----------------------------------------

  FORCE on cell =-STRESS in cart. coord.  units (eV):
  Direction    XX          YY          ZZ          XY          YZ          ZX
  Alpha Z     5.94975     5.94975     5.94975
  Ewald     -98.86579   -98.86579   -98.66295    -0.00000    -0.00000     0.00000
  Hartree     0.16590     0.16590     0.18072    -0.00000    -0.00000    -0.00000
  E(xc)     -27.19286   -27.19286   -27.22159    -0.00000     0.00000    -0.00000
  Local      -6.22182    -6.22183    -6.52032    -0.00001     0.00000     0.00000
  n-local    74.94000    80.16717    78.24130    -1.53204     0.23537    -0.87612
  augment   -12.00198   -12.00198   -11.99578     0.00001     0.00000     0.00000
  Kinetic    83.22544    48.57316    64.79953    11.55928     0.08867     0.20167
  Fock        0.00000     0.00000     0.00000     0.00000     0.00000     0.00000
  Total       5.28609     5.28609     4.77066     0.00000     0.00000     0.00000
  in kB     374.22179   374.22179   337.73294     0.00000     0.00000     0.00000

 VOLUME and BASIS-vectors are now :
  energy-cutoff  :      450.00
  volume of cell :       22.63
      direct lattice vectors                 reciprocal lattice vectors
     2.520000000  0.000000000  0.000000000     0.396825397  0.229107250  0.000000000
    -1.260000000  2.182384018  0.000000000     0.000000000  0.458214499  0.000000000
     0.000000000  0.000000000  4.115134800     0.000000000  0.000000000  0.243005405

[...]

 FORCES acting on ions
    electron-ion (+dipol)            ewald-force                    non-local-force                 convergence-correction
   -.433E-08 0.250E-08 0.691E-14   -.101E-12 0.797E-13 -.473E-14   -.625E-16 0.347E-17 0.000E+00   0.549E-09 -.317E-09 0.318E-14
   0.433E-08 -.250E-08 -.356E-13   0.100E-12 -.796E-13 0.473E-14   0.590E-16 -.347E-17 0.000E+00   -.549E-09 0.317E-09 -.315E-14
   -.663E-14 -.173E-14 -.287E-13   -.924E-15 0.132E-15 0.000E+00   -.347E-17 0.000E+00 0.000E+00   -.438E-16 0.169E-16 0.331E-16

 POSITION                                       TOTAL-FORCE (eV/Angst)
      0.00000      0.00000      0.00000        -0.000000      0.000000      0.000000
     -0.00000      1.45492      2.05757         0.000000     -0.000000      0.000000
    total drift:                               -0.000000     -0.000000     -0.000000

  FREE ENERGIE OF THE ION-ELECTRON SYSTEM (eV)
  free  energy   TOTEN  =        -9.31088830 eV

  energy  without entropy=       -9.30743310  energy(sigma->0) =       -9.30916070

 FEWALD executed in parallel

[...]

 eigenvalue-minimisations  :   872
 total energy-change (2. order) : 0.3287398E-03  (-0.7834706E-04)
 number of electron       7.9999999 magnetization
 augmentation part       -0.4742324 magnetization

 Broyden mixing:
  rms(total) = 0.73632E-03    rms(broyden)= 0.73631E-03
  rms(prec ) = 0.11626E-02
  weight for this iteration     100.00

 eigenvalues of (default mixing * dielectric matrix)
  average eigenvalue GAMMA=   1.6231
  1.0544  2.1919

[...]

----------------------------------------- Iteration    2(   4)  ---------------------------------------

 eigenvalue-minimisations  :   584
 total energy-change (2. order) :-0.2367827E-05  (-0.2246703E-05)
 number of electron       7.9999999 magnetization
 augmentation part       -0.4742324 magnetization

 Free energy of the ion-electron system (eV)
  alpha Z        PSCENC =         5.94974999
  Ewald energy   TEWEN  =      -296.38627630
  -Hartree energ DENC   =        -0.51419141
  -exchange      EXHF   =         0.00000000
  -V(xc)+E(xc)   XCENC  =       -15.94958961
  PAW double counting   =      1095.54237196    -1060.50501430
  entropy T*S    EENTRO =        -0.00562603
  eigenvalues    EBANDS =        56.42466748
  atomic energy  EATOM  =       206.13192747
  Solvation  Ediel_sol  =         0.00000000
  free energy    TOTEN  =        -9.31198075 eV

  energy without entropy =       -9.30635472  energy(sigma->0) =       -9.30916774

 average (electrostatic) potential at core
  the test charge radii are     0.9892
  (the norm of the test charge is              1.0000)
       1 -76.2758       2 -76.2758

 E-fermi :  13.7709     XC(G=0): -12.2167     alpha+bet :-21.1956

[...]

 k-point    36 :      -0.4167    0.4167    0.4167
  band No.  band energies     occupation
      1       3.4491      2.00000
      2       4.8229      2.00000
      3       8.3685      2.00000
      4       9.7027      2.00000
      5      18.2459      0.00000
      6      19.0449      0.00000
      7      20.2858      0.00000
      8      20.5888      0.00000

 soft charge-density along one line, spin component           1
         0         1         2         3         4         5         6         7         8         9
 total charge-density along one line

------------------------ aborting loop because EDIFF is reached ----------------------------------------

  FORCE on cell =-STRESS in cart. coord.  units (eV):
  Direction    XX          YY          ZZ          XY          YZ          ZX
  Alpha Z     5.94975     5.94975     5.94975
  Ewald     -99.36962   -99.36962   -97.64725    -0.00000    -0.00000    -0.00000
  Hartree     0.15771     0.15771     0.19851    -0.00000    -0.00000    -0.00000
  E(xc)     -27.18601   -27.18601   -27.23735    -0.00000    -0.00000    -0.00000
  Local      -5.73035    -5.73036    -7.52215    -0.00001     0.00000    -0.00000
  n-local    74.89746    80.00943    78.52456    -1.49525     0.22673    -0.85351
  augment   -11.99818   -11.99818   -12.02447     0.00001     0.00000     0.00000
  Kinetic    82.89620    48.80074    64.88769    11.28685     0.19720     0.22312
  Fock        0.00000     0.00000     0.00000     0.00000     0.00000     0.00000
  Total       5.12522     5.12522     5.12931     0.00000     0.00000    -0.00000
  in kB     362.83337   362.83337   363.12287     0.00000     0.00000    -0.00000

 VOLUME and BASIS-vectors are now :
  energy-cutoff  :      450.00
  volume of cell :       22.63
      direct lattice vectors                 reciprocal lattice vectors
     2.530487076  0.000000000  0.000000000     0.395180837  0.228157762  0.000000000
    -1.265243538  2.191466092  0.000000000     0.000000000  0.456315525  0.000000000
     0.000000000  0.000000000  4.081096843     0.000000000  0.000000000  0.245032166

  length of vectors
     2.530487076  2.530487076  4.081096843     0.456315525  0.456315525  0.245032166

 FORCES acting on ions
    electron-ion (+dipol)            ewald-force                    non-local-force                 convergence-correction
   -.394E-08 0.227E-08 0.640E-14   -.110E-12 0.894E-13 -.430E-14   0.152E-15 -.520E-16 0.000E+00   0.194E-09 -.112E-09 0.137E-15
   0.394E-08 -.227E-08 -.344E-13   0.109E-12 -.887E-13 0.430E-14   -.177E-15 0.572E-16 0.000E+00   -.194E-09 0.112E-09 -.124E-15
   -.436E-14 -.320E-14 -.280E-13   -.122E-14 0.651E-15 0.000E+00   -.252E-16 0.520E-17 0.000E+00   0.719E-16 0.694E-16 0.126E-16

 POSITION                                       TOTAL-FORCE (eV/Angst)
     -0.00000      0.00000      0.00000        -0.000000      0.000000      0.000000
     -0.00000      1.46098      2.04055         0.000000      0.000000      0.000000
    total drift:                               -0.000000     -0.000000     -0.000000

  FREE ENERGIE OF THE ION-ELECTRON SYSTEM (eV)
  free  energy   TOTEN  =        -9.31198075 eV

  energy  without entropy=       -9.30635472  energy(sigma->0) =       -9.30916774

 d Force = 0.0000000E+00[ 0.000E+00, 0.000E+00]  d Energy = 0.1092451E-02-0.109E-02
 d Force = 0.0000000E+00[ 0.000E+00, 0.000E+00]  d Ewald  =-0.8042821E-02 0.804E-02

 Steepest descent step on ions:
 trial-energy change:   -0.001092  1 .order   -0.002119   -0.004272    0.000034
  (g-gl).g = 0.427E-02      g.g   = 0.427E-02  gl.gl    = 0.000E+00
 g(Force)  = 0.271E-50   g(Stress)= 0.427E-02 ortho     = 0.000E+00
 gamma     =   0.00000
 trial     =   1.00000
 opt step  =   0.68175  (harmonic =   0.99213) maximal distance =0.00000000
 next E    =    -9.312019   (d E  =  -0.00113)

 reached required accuracy - stopping structural energy minimisation
 writing wavefunctions