 vasp.5.4.1 24Jun15 (build Jul 19 2016 16:50:41) complex

 executed on           IFC91_ompi date 2019.10.10  11:09:17

 INCAR:
 POTCAR:    PAW_PBE Si 05Jan2001
 POTCAR:    PAW_PBE Si 05Jan2001
   VRHFIN = Si: s2p2

   TITEL  = PAW_PBE Si 05Jan2001
   POMASS =   28.085; ZVAL   =    4.000    mass and valenz
   ENMAX  =  245.345; ENMIN  =  184.009 eV

  PAW_PBE Si 05Jan2001                  :

 POSCAR: Si HCP
  positions in direct lattice
 exchange correlation table for  LEXCH =        8
   RHO(1)=    0.500       N(1)  =     2000
   RHO(2)=  100.500       N(2)  =     4000

 ion  position               nearest neighbor table
   1  0.000  0.000  0.000-   2 2.00   2 2.00   2 2.00   2 2.00   2 2.00   2 2.00   2 2.83   2 2.83
                             2 2.83   2 2.83   2 2.83   2 2.83
   2  0.333  0.667  0.500-   1 2.00   1 2.00   1 2.00   1 2.00   1 2.00   1 2.00   1 2.83   1 2.83
                             1 2.83   1 2.83   1 2.83   1 2.83

  LATTYP: Found a hexagonal cell.
 ALAT       =     2.0000000000
 C/A-ratio  =     1.6329900000

  Lattice vectors:

 A1 = (   2.0000000000,   0.0000000000,   0.0000000000)
 A2 = (  -1.0000000000,   1.7320508076,   0.0000000000)
 A3 = (   0.0000000000,   0.0000000000,   3.2659800000)

Analysis of symmetry for initial positions (statically):
 Subroutine PRICEL returns:
 Original cell was already a primitive cell.

 Routine SETGRP: Setting up the symmetry group for a
 hexagonal supercell.

 Subroutine GETGRP returns: Found 24 space group operations
 (whereof 12 operations were pure point group operations)
 out of a pool of 24 trial point group operations.

The static configuration has the point symmetry D_3h.
 The point group associated with its full space group is D_6h.

Analysis of symmetry for dynamics (positions and initial velocities):
 Subroutine PRICEL returns:
 Original cell was already a primitive cell.

 Routine SETGRP: Setting up the symmetry group for a
 hexagonal supercell.

 Subroutine GETGRP returns: Found 24 space group operations
 (whereof 12 operations were pure point group operations)
 out of a pool of 24 trial point group operations.

The dynamic configuration has the point symmetry D_3h.
 The point group associated with its full space group is D_6h.

 Subroutine INISYM returns: Found 24 space group operations
 (whereof 12 operations are pure point group operations),
 and found     1 'primitive' translations

 KPOINTS: K-Points

Automatic generation of k-mesh.
Space group operators:
 irot       det(A)        alpha          n_x          n_y          n_z        tau_x        tau_y        tau_z
    1     1.000000     0.000000     1.000000     0.000000     0.000000     0.000000     0.000000     0.000000
    2    -1.000000    60.000000     0.000000     0.000000    -1.000000     0.000000     0.000000     0.000000
    3     1.000000   120.000000     0.000000     0.000000    -1.000000     0.000000     0.000000     0.000000
    4    -1.000000   179.999999     0.000000     0.000000     1.000000     0.000000     0.000000     0.000000
    5     1.000000   120.000000     0.000000     0.000000     1.000000     0.000000     0.000000     0.000000
    6    -1.000000    60.000000     0.000000     0.000000     1.000000     0.000000     0.000000     0.000000
    7    -1.000000   180.000000     1.000000     0.000000     0.000000     0.000000     0.000000     0.000000
    8     1.000000   180.000000     0.866025    -0.500000     0.000000     0.000000     0.000000     0.000000
    9    -1.000000   180.000000     0.500000    -0.866025     0.000000     0.000000     0.000000     0.000000
   10     1.000000   180.000000     0.000000     1.000000     0.000000     0.000000     0.000000     0.000000
   11    -1.000000   180.000000    -0.500000    -0.866025     0.000000     0.000000     0.000000     0.000000
   12     1.000000   180.000000     0.866025     0.500000     0.000000     0.000000     0.000000     0.000000
   13    -1.000000     0.000000     1.000000     0.000000     0.000000     0.333333     0.666667     0.500000
   14     1.000000    60.000000     0.000000     0.000000    -1.000000     0.333333     0.666667     0.500000
   15    -1.000000   120.000000     0.000000     0.000000    -1.000000     0.333333     0.666667     0.500000
   16     1.000000   179.999999     0.000000     0.000000     1.000000     0.333333     0.666667     0.500000
   17    -1.000000   120.000000     0.000000     0.000000     1.000000     0.333333     0.666667     0.500000
   18     1.000000    60.000000     0.000000     0.000000     1.000000     0.333333     0.666667     0.500000
   19     1.000000   180.000000     1.000000     0.000000     0.000000     0.333333     0.666667     0.500000
   20    -1.000000   180.000000     0.866025    -0.500000     0.000000     0.333333     0.666667     0.500000
   21     1.000000   180.000000     0.500000    -0.866025     0.000000     0.333333     0.666667     0.500000
   22    -1.000000   180.000000     0.000000     1.000000     0.000000     0.333333     0.666667     0.500000
   23     1.000000   180.000000    -0.500000    -0.866025     0.000000     0.333333     0.666667     0.500000
   24    -1.000000   180.000000     0.866025     0.500000     0.000000     0.333333     0.666667     0.500000

 Subroutine IBZKPT returns following result:

 Found     36 irreducible k-points:

 Following reciprocal coordinates:
            Coordinates               Weight
  0.083333  0.083333  0.083333     96.000000
  0.250000  0.083333  0.083333    192.000000
  0.416667  0.083333  0.083333    192.000000
 -0.416667  0.083333  0.083333    192.000000
 -0.250000  0.083333  0.083333    192.000000
 -0.083333  0.083333  0.083333     96.000000
  0.250000  0.250000  0.083333     96.000000
  0.416667  0.250000  0.083333    192.000000
 -0.416667  0.250000  0.083333    192.000000
 -0.250000  0.250000  0.083333     96.000000
  0.416667  0.416667  0.083333     96.000000
 -0.416667  0.416667  0.083333     96.000000
  0.083333  0.083333  0.250000     96.000000
  0.250000  0.083333  0.250000    192.000000
  0.416667  0.083333  0.250000    192.000000
 -0.416667  0.083333  0.250000    192.000000
 -0.250000  0.083333  0.250000    192.000000
 -0.083333  0.083333  0.250000     96.000000
  0.250000  0.250000  0.250000     96.000000
  0.416667  0.250000  0.250000    192.000000
 -0.416667  0.250000  0.250000    192.000000
 -0.250000  0.250000  0.250000     96.000000
  0.416667  0.416667  0.250000     96.000000
 -0.416667  0.416667  0.250000     96.000000
  0.083333  0.083333  0.416667     96.000000
  0.250000  0.083333  0.416667    192.000000
  0.416667  0.083333  0.416667    192.000000
 -0.416667  0.083333  0.416667    192.000000
 -0.250000  0.083333  0.416667    192.000000
 -0.083333  0.083333  0.416667     96.000000
  0.250000  0.250000  0.416667     96.000000
  0.416667  0.250000  0.416667    192.000000
 -0.416667  0.250000  0.416667    192.000000
 -0.250000  0.250000  0.416667     96.000000
  0.416667  0.416667  0.416667     96.000000
 -0.416667  0.416667  0.416667     96.000000

 Following cartesian coordinates:
            Coordinates               Weight
  0.083333  0.144338  0.051031     96.000000
  0.250000  0.240563  0.051031    192.000000
  0.416667  0.336788  0.051031    192.000000
 -0.416667 -0.144338  0.051031    192.000000
 -0.250000 -0.048113  0.051031    192.000000
 -0.083333  0.048113  0.051031     96.000000
  0.250000  0.433013  0.051031     96.000000
  0.416667  0.529238  0.051031    192.000000
 -0.416667  0.048113  0.051031    192.000000
 -0.250000  0.144338  0.051031     96.000000
  0.416667  0.721688  0.051031     96.000000
 -0.416667  0.240563  0.051031     96.000000
  0.083333  0.144338  0.153093     96.000000
  0.250000  0.240563  0.153093    192.000000
  0.416667  0.336788  0.153093    192.000000
 -0.416667 -0.144338  0.153093    192.000000
 -0.250000 -0.048113  0.153093    192.000000
 -0.083333  0.048113  0.153093     96.000000
  0.250000  0.433013  0.153093     96.000000
  0.416667  0.529238  0.153093    192.000000
 -0.416667  0.048113  0.153093    192.000000
 -0.250000  0.144338  0.153093     96.000000
  0.416667  0.721688  0.153093     96.000000
 -0.416667  0.240563  0.153093     96.000000
  0.083333  0.144338  0.255156     96.000000
  0.250000  0.240563  0.255156    192.000000
  0.416667  0.336788  0.255156    192.000000
 -0.416667 -0.144338  0.255156    192.000000
 -0.250000 -0.048113  0.255156    192.000000
 -0.083333  0.048113  0.255156     96.000000
  0.250000  0.433013  0.255156     96.000000
  0.416667  0.529238  0.255156    192.000000
 -0.416667  0.048113  0.255156    192.000000
 -0.250000  0.144338  0.255156     96.000000
  0.416667  0.721688  0.255156     96.000000
 -0.416667  0.240563  0.255156     96.000000

 I would recommend the setting:
   dimension x,y,z NGX =    14 NGY =   14 NGZ =   23
 SYSTEM =  Si beta-tin
 POSCAR =  Si HCP

 Startparameter for this run:
   NWRITE =      2    write-flag & timer
   PREC   = accura    normal or accurate (medium, high low for compatibility)
   ISTART =      0    job   : 0-new  1-cont  2-samecut
   ICHARG =      2    charge: 1-file 2-atom 10-const
   ISPIN  =      1    spin polarized calculation?
   LNONCOLLINEAR =      F non collinear calculations
   LSORBIT =      F    spin-orbit coupling
   INIWAV =      1    electr: 0-lowe 1-rand  2-diag
   LASPH  =      F    aspherical Exc in radial PAW
   METAGGA=      F    non-selfconsistent MetaGGA calc.

 Electronic Relaxation 1
   ENCUT  =  450.0 eV  33.07 Ry    5.75 a.u.   3.46  3.46  5.65*2*pi/ulx,y,z
   ENINI  =  450.0     initial cutoff
   ENAUG  =  322.1 eV  augmentation charge cutoff
   NELM   =     60;   NELMIN=  2; NELMDL= -5     # of ELM steps
   EDIFF  = 0.1E-04   stopping-criterion for ELM
   LREAL  =      F    real-space projection
   NLSPLINE    = F    spline interpolate recip. space projectors
   LCOMPAT=      F    compatible to vasp.4.4
   GGA_COMPAT  = T    GGA compatible to vasp.4.4-vasp.4.6
   LMAXPAW     = -100 max onsite density
   LMAXMIX     =    2 max onsite mixed and CHGCAR
   VOSKOWN=      0    Vosko Wilk Nusair interpolation
   ROPT   =    0.00000
 Ionic relaxation
   EDIFFG = -.1E-01   stopping-criterion for IOM
   NSW    =    100    number of steps for IOM
   NBLOCK =      1;   KBLOCK =    100    inner block; outer block
   IBRION =      2    ionic relax: 0-MD 1-quasi-New 2-CG
   NFREE  =      1    steps in history (QN), initial steepest desc. (CG)
   ISIF   =      4    stress and relaxation
   IWAVPR =     11    prediction:  0-non 1-charg 2-wave 3-comb
   ISYM   =      2    0-nonsym 1-usesym 2-fastsym
   LCORR  =      T    Harris-Foulkes like correction to forces

   POTIM  = 0.5000    time-step for ionic-motion
   TEIN   =    0.0    initial temperature
   TEBEG  =    0.0;   TEEND  =   0.0 temperature during run
   SMASS  =  -3.00    Nose mass-parameter (am)
   estimated Nose-frequenzy (Omega)   =  0.10E-29 period in steps =****** mass=  -0.914E-28a.u.
   SCALEE = 1.0000    scale energy and forces
   NPACO  =    256;   APACO  = 16.0  distance and # of slots for P.C.
   PSTRESS=    0.0 pullay stress

  Mass of Ions in am
   POMASS =  28.09
  Ionic Valenz
   ZVAL   =   4.00
  Atomic Wigner-Seitz radii
  virtual crystal weights
[...]
   0.41666667  0.72168784  0.15309341       0.019
  -0.41666667  0.24056261  0.15309341       0.019
   0.08333333  0.14433757  0.25515568       0.019
   0.25000000  0.24056261  0.25515568       0.037
   0.41666667  0.33678766  0.25515568       0.037
  -0.41666667 -0.14433757  0.25515568       0.037
  -0.25000000 -0.04811252  0.25515568       0.037
  -0.08333333  0.04811252  0.25515568       0.019
   0.25000000  0.43301270  0.25515568       0.019
   0.41666667  0.52923775  0.25515568       0.037
  -0.41666667  0.04811252  0.25515568       0.037
  -0.25000000  0.14433757  0.25515568       0.019
   0.41666667  0.72168784  0.25515568       0.019
  -0.41666667  0.24056261  0.25515568       0.019

 k-points in reciprocal lattice and weights: K-Points
   0.08333333  0.08333333  0.08333333       0.019
   0.25000000  0.08333333  0.08333333       0.037
   0.41666667  0.08333333  0.08333333       0.037
  -0.41666667  0.08333333  0.08333333       0.037
  -0.25000000  0.08333333  0.08333333       0.037
  -0.08333333  0.08333333  0.08333333       0.019
   0.25000000  0.25000000  0.08333333       0.019
   0.41666667  0.25000000  0.08333333       0.037
  -0.41666667  0.25000000  0.08333333       0.037
  -0.25000000  0.25000000  0.08333333       0.019
   0.41666667  0.41666667  0.08333333       0.019
  -0.41666667  0.41666667  0.08333333       0.019
   0.08333333  0.08333333  0.25000000       0.019
   0.25000000  0.08333333  0.25000000       0.037
   0.41666667  0.08333333  0.25000000       0.037
  -0.41666667  0.08333333  0.25000000       0.037
  -0.25000000  0.08333333  0.25000000       0.037
  -0.08333333  0.08333333  0.25000000       0.019
   0.25000000  0.25000000  0.25000000       0.019
   0.41666667  0.25000000  0.25000000       0.037
  -0.41666667  0.25000000  0.25000000       0.037
  -0.25000000  0.25000000  0.25000000       0.019
   0.41666667  0.41666667  0.25000000       0.019
  -0.41666667  0.41666667  0.25000000       0.019
   0.08333333  0.08333333  0.41666667       0.019
   0.25000000  0.08333333  0.41666667       0.037
   0.41666667  0.08333333  0.41666667       0.037
  -0.41666667  0.08333333  0.41666667       0.037
  -0.25000000  0.08333333  0.41666667       0.037
  -0.08333333  0.08333333  0.41666667       0.019
   0.25000000  0.25000000  0.41666667       0.019
   0.41666667  0.25000000  0.41666667       0.037
  -0.41666667  0.25000000  0.41666667       0.037
  -0.25000000  0.25000000  0.41666667       0.019
   0.41666667  0.41666667  0.41666667       0.019
  -0.41666667  0.41666667  0.41666667       0.019

 position of ions in fractional coordinates (direct lattice)
   0.00000000  0.00000000  0.00000000
   0.33333333  0.66666667  0.50000000

 position of ions in cartesian coordinates  (Angst):
   0.00000000  0.00000000  0.00000000
  -0.00000000  1.15470054  1.63299000

 k-point  1 :   0.0833 0.0833 0.0833  plane waves:     253
 k-point  2 :   0.2500 0.0833 0.0833  plane waves:     252
 k-point  3 :   0.4167 0.0833 0.0833  plane waves:     238
 k-point  4 :  -0.4167 0.0833 0.0833  plane waves:     246
 k-point  5 :  -0.2500 0.0833 0.0833  plane waves:     251
 k-point  6 :  -0.0833 0.0833 0.0833  plane waves:     249
 k-point  7 :   0.2500 0.2500 0.0833  plane waves:     241
 k-point  8 :   0.4167 0.2500 0.0833  plane waves:     239
 k-point  9 :  -0.4167 0.2500 0.0833  plane waves:     244
 k-point 10 :  -0.2500 0.2500 0.0833  plane waves:     252
 k-point 11 :   0.4167 0.4167 0.0833  plane waves:     242
 k-point 12 :  -0.4167 0.4167 0.0833  plane waves:     241
 k-point 13 :   0.0833 0.0833 0.2500  plane waves:     250
 k-point 14 :   0.2500 0.0833 0.2500  plane waves:     249
 k-point 15 :   0.4167 0.0833 0.2500  plane waves:     242
 k-point 16 :  -0.4167 0.0833 0.2500  plane waves:     242
 k-point 17 :  -0.2500 0.0833 0.2500  plane waves:     252
 k-point 18 :  -0.0833 0.0833 0.2500  plane waves:     253
 k-point 19 :   0.2500 0.2500 0.2500  plane waves:     241
 k-point 20 :   0.4167 0.2500 0.2500  plane waves:     241
 k-point 21 :  -0.4167 0.2500 0.2500  plane waves:     242
 k-point 22 :  -0.2500 0.2500 0.2500  plane waves:     252
 k-point 23 :   0.4167 0.4167 0.2500  plane waves:     243
 k-point 24 :  -0.4167 0.4167 0.2500  plane waves:     243
 k-point 25 :   0.0833 0.0833 0.4167  plane waves:     244
 k-point 26 :   0.2500 0.0833 0.4167  plane waves:     247
 k-point 27 :   0.4167 0.0833 0.4167  plane waves:     244
 k-point 28 :  -0.4167 0.0833 0.4167  plane waves:     245
 k-point 29 :  -0.2500 0.0833 0.4167  plane waves:     250
 k-point 30 :  -0.0833 0.0833 0.4167  plane waves:     248
 k-point 31 :   0.2500 0.2500 0.4167  plane waves:     244
 k-point 32 :   0.4167 0.2500 0.4167  plane waves:     241
 k-point 33 :  -0.4167 0.2500 0.4167  plane waves:     243
 k-point 34 :  -0.2500 0.2500 0.4167  plane waves:     249
 k-point 35 :   0.4167 0.4167 0.4167  plane waves:     241
 k-point 36 :  -0.4167 0.4167 0.4167  plane waves:     245

 maximum and minimum number of plane-waves per node :       253      238

 maximum number of plane-waves:       253
 maximum index in each direction:
   IXMAX=    3   IYMAX=    3   IZMAX=    5
   IXMIN=   -3   IYMIN=   -3   IZMIN=   -6

 NGX is ok and might be reduce to  14
 NGY is ok and might be reduce to  14
 NGZ is ok and might be reduce to  24

 serial   3D FFT for wavefunctions
 parallel 3D FFT for charge:
    minimum data exchange during FFTs selected (reduces bandwidth)

 Broyden mixing: mesh for mixing (old mesh)
   NGX =  7   NGY =  7   NGZ = 11
  (NGX  = 28   NGY  = 28   NGZ  = 48)
  gives a total of    539 points

 initial charge density was supplied:
 charge density of overlapping atoms calculated
 number of electron       8.0000000 magnetization
 keeping initial charge density in first step

 Maximum index for augmentation-charges         3376 (set IRDMAX)

 First call to EWALD:  gamma=   0.790
 Maximum number of real-space cells 3x 3x 2
 Maximum number of reciprocal cells 3x 3x 4

 FEWALD executed in parallel

----------------------------------------- Iteration    1(   1)  ---------------------------------------

 eigenvalue-minimisations  :   664
 total energy-change (2. order) : 0.1608986E+02  (-0.4184833E+03)
 number of electron       8.0000000 magnetization
 augmentation part        8.0000000 magnetization

 Free energy of the ion-electron system (eV)
  alpha Z        PSCENC =        11.90173708
  Ewald energy   TEWEN  =      -373.45684209
  -Hartree energ DENC   =        -0.58104602
  -exchange      EXHF   =         0.00000000
  -V(xc)+E(xc)   XCENC  =       -11.81561270
  PAW double counting   =       176.24759923     -141.06103558
  entropy T*S    EENTRO =        -0.00000099
  eigenvalues    EBANDS =       148.72312963
  atomic energy  EATOM  =       206.13192747
  Solvation  Ediel_sol  =         0.00000000
  free energy    TOTEN  =        16.08985603 eV

  energy without entropy =       16.08985702  energy(sigma->0) =       16.08985653

[...]

 eigenvalue-minimisations  :   880
 total energy-change (2. order) :-0.1134002E+02  (-0.1108776E+02)
 number of electron       8.0000000 magnetization
 augmentation part        8.0000000 magnetization

[...]

 Broyden mixing:
  rms(total) = 0.21711E+01    rms(broyden)= 0.21711E+01
  rms(prec ) = 0.22550E+01
  weight for this iteration     100.00

[...]

 eigenvalues of (default mixing * dielectric matrix)
  average eigenvalue GAMMA=   2.2880
  2.2880

[...]

 average (electrostatic) potential at core
  the test charge radii are     0.9892
  (the norm of the test charge is              1.0000)
       1 -62.7092       2 -62.7092

 E-fermi :  27.6736     XC(G=0): -15.4724     alpha+bet :-42.3991

 k-point     1 :       0.0833    0.0833    0.0833
  band No.  band energies     occupation
      1       3.3616      2.00000
      2      13.4814      2.00000
      3      18.2695      2.00000
      4      34.6004      0.00000
      5      37.1325      0.00000
      6      43.2066      0.00000
      7      43.4386      0.00000
      8      44.6788      0.00000

[...]

 soft charge-density along one line, spin component           1
         0         1         2         3         4         5         6         7         8         9
 total charge-density along one line

------------------------ aborting loop because EDIFF is reached ----------------------------------------

  FORCE on cell =-STRESS in cart. coord.  units (eV):
  Direction    XX          YY          ZZ          XY          YZ          ZX
  Alpha Z    11.90174    11.90174    11.90174
  Ewald    -124.57089  -124.57089  -124.31532    -0.00000     0.00000     0.00000
  Hartree     0.65524     0.65524     0.66825    -0.00000    -0.00000    -0.00000
  E(xc)     -35.27206   -35.27206   -35.31132     0.00000    -0.00000    -0.00000
  Local      -4.20852    -4.20853    -5.47131    -0.00001    -0.00000     0.00000
  n-local    96.40241   109.89808   103.54045    -4.42113     1.29521    -1.34939
  augment   -12.79521   -12.79520   -12.97305     0.00001     0.00000     0.00000
  Kinetic   130.06653    79.88769   107.35797    14.74416    -0.43602    -0.98576
  Fock        0.00000     0.00000     0.00000     0.00000     0.00000     0.00000
  Total      43.83765    43.83765    45.39742     0.00000    -0.00000     0.00000
  in kB    6208.02905  6208.02905  6428.91444     0.00000    -0.00000     0.00000

 VOLUME and BASIS-vectors are now :
  energy-cutoff  :      450.00
  volume of cell :       11.31
      direct lattice vectors                 reciprocal lattice vectors
     2.000000000  0.000000000  0.000000000     0.500000000  0.288675135  0.000000000
    -1.000000000  1.732050808  0.000000000     0.000000000  0.577350269  0.000000000
     0.000000000  0.000000000  3.265980000     0.000000000  0.000000000  0.306186811

[...]

 FORCES acting on ions
    electron-ion (+dipol)            ewald-force                    non-local-force                 convergence-correction
   -.838E-09 0.484E-09 -.718E-14   -.169E-12 0.120E-12 -.806E-14   0.000E+00 0.156E-16 0.000E+00   0.510E-09 -.294E-09 0.585E-15
   0.445E-07 -.257E-07 -.102E-12   0.170E-12 -.121E-12 0.806E-14   0.694E-17 -.208E-16 0.000E+00   -.510E-09 0.295E-09 0.477E-15
   0.437E-07 -.252E-07 -.109E-12   0.112E-14 -.743E-15 0.000E+00   0.694E-17 -.520E-17 0.000E+00   -.550E-12 0.317E-12 0.106E-14

 POSITION                                       TOTAL-FORCE (eV/Angst)
      0.00000      0.00000      0.00000        -0.000000      0.000000      0.000000
     -0.00000      1.15470      1.63299         0.000000      0.000000      0.000000
    total drift:                                0.000000     -0.000000     -0.000000

  FREE ENERGIE OF THE ION-ELECTRON SYSTEM (eV)
  free  energy   TOTEN  =         5.27466043 eV

  energy  without entropy=        5.27762975  energy(sigma->0) =        5.27614509

[...]

 d Force = 0.0000000E+00[ 0.000E+00, 0.000E+00]  d Energy =-0.3954652E-02 0.395E-02
 d Force = 0.0000000E+00[ 0.000E+00, 0.000E+00]  d Ewald  =-0.7016692E-01 0.702E-01

 Steepest descent step on ions:
 trial-energy change:    0.003955  1 .order    0.016833   -0.039123    0.072790
  (g-gl).g = 0.391E-01      g.g   = 0.391E-01  gl.gl    = 0.000E+00
 g(Force)  = 0.157E-53   g(Stress)= 0.391E-01 ortho     = 0.000E+00
 gamma     =   0.00000
 trial     =   1.00000
 opt step  =   0.52187  (harmonic =   0.34958) maximal distance =0.00000000
 next E    =     5.262621   (d E  =  -0.01204)

[...]

 eigenvalues of (default mixing * dielectric matrix)
  average eigenvalue GAMMA=   1.6337
  1.1863  2.0811

[...]

 d Force = 0.0000000E+00[ 0.000E+00, 0.000E+00]  d Energy = 0.1618437E-01-0.162E-01
 d Force = 0.0000000E+00[ 0.000E+00, 0.000E+00]  d Ewald  = 0.5297628E-01-0.530E-01

 FEWALD executed in parallel

[...]

 eigenvalue-minimisations  :   752
 total energy-change (2. order) :-0.4731383E-05  (-0.4004764E-05)
 number of electron       7.9999999 magnetization
 augmentation part       -0.5350740 magnetization

 Broyden mixing:
  rms(total) = 0.37726E-03    rms(broyden)= 0.37725E-03
  rms(prec ) = 0.88927E-03
  weight for this iteration     100.00

[...]

----------------------------------------- Iteration    4(   2)  ---------------------------------------

 eigenvalue-minimisations  :   296
 total energy-change (2. order) : 0.1970993E-06  (-0.3866135E-07)
 number of electron       7.9999999 magnetization
 augmentation part       -0.5350740 magnetization

 Free energy of the ion-electron system (eV)
  alpha Z        PSCENC =        11.90173708
  Ewald energy   TEWEN  =      -373.43920135
  -Hartree energ DENC   =        -1.97682049
  -exchange      EXHF   =         0.00000000
  -V(xc)+E(xc)   XCENC  =       -10.73407348
  PAW double counting   =      7993.55619984    -7959.68718327
  entropy T*S    EENTRO =        -0.00292974
  eigenvalues    EBANDS =       139.51277152
  atomic energy  EATOM  =       206.13192747
  Solvation  Ediel_sol  =         0.00000000
  free energy    TOTEN  =         5.26242757 eV

  energy without entropy =        5.26535731  energy(sigma->0) =        5.26389244

 average (electrostatic) potential at core
  the test charge radii are     0.9892
  (the norm of the test charge is              1.0000)
       1 -62.7090       2 -62.7090

 E-fermi :  27.4608     XC(G=0): -15.4723     alpha+bet :-42.3991

[...]

 k-point    36 :      -0.4167    0.4167    0.4167
  band No.  band energies     occupation
      1      12.2436      2.00000
      2      14.0670      2.00000
      3      19.8839      2.00000
      4      21.6421      2.00000
      5      32.1008      0.00000
      6      34.8818      0.00000
      7      38.1865      0.00000
      8      39.4852      0.00000

 soft charge-density along one line, spin component           1
         0         1         2         3         4         5         6         7         8         9
 total charge-density along one line

------------------------ aborting loop because EDIFF is reached ----------------------------------------

  FORCE on cell =-STRESS in cart. coord.  units (eV):
  Direction    XX          YY          ZZ          XY          YZ          ZX
  Alpha Z    11.90174    11.90174    11.90174
  Ewald    -123.49062  -123.49062  -126.45808    -0.00000     0.00000     0.00000
  Hartree     0.60494     0.60494     0.76694    -0.00000    -0.00000    -0.00000
  E(xc)     -35.31973   -35.31973   -35.22165     0.00000    -0.00000    -0.00000
  Local      -5.17737    -5.17738    -3.57107    -0.00001    -0.00000     0.00000
  n-local    97.34540   110.65524   101.71237    -4.57235     1.42787    -1.10854
  augment   -12.77927   -12.77926   -12.90361     0.00001     0.00000     0.00000
  Kinetic   130.33627    78.87722   108.12397    15.41436    -0.47566    -2.15697
  Fock        0.00000     0.00000     0.00000     0.00000     0.00000     0.00000
  Total      44.34674    44.34674    44.35062     0.00000     0.00000     0.00000
  in kB    6280.12339  6280.12339  6280.67179     0.00000     0.00000     0.00000

 VOLUME and BASIS-vectors are now :
  energy-cutoff  :      450.00
  volume of cell :       11.31
      direct lattice vectors                 reciprocal lattice vectors
     1.986843224  0.000000000  0.000000000     0.503310975  0.290586727  0.000000000
    -0.993421612  1.720656705  0.000000000     0.000000000  0.581173454  0.000000000
     0.000000000 -0.000000000  3.309377525     0.000000000  0.000000000  0.302171630

  length of vectors
     1.986843224  1.986843224  3.309377525     0.581173454  0.581173454  0.302171630

 FORCES acting on ions
    electron-ion (+dipol)            ewald-force                    non-local-force                 convergence-correction
   -.141E-08 0.816E-09 -.838E-14   -.145E-12 0.160E-12 -.766E-14   0.598E-16 0.520E-17 0.000E+00   0.118E-09 -.681E-10 -.705E-16
   0.110E-07 -.636E-08 -.100E-12   0.144E-12 -.161E-12 0.766E-14   -.373E-16 0.608E-17 0.000E+00   -.118E-09 0.683E-10 0.174E-15
   0.961E-08 -.555E-08 -.109E-12   -.108E-14 -.128E-14 0.000E+00   0.226E-16 0.113E-16 0.000E+00   -.305E-12 0.176E-12 0.104E-15

 POSITION                                       TOTAL-FORCE (eV/Angst)
     -0.00000      0.00000      0.00000        -0.000000      0.000000      0.000000
     -0.00000      1.14710      1.65469         0.000000     -0.000000      0.000000
    total drift:                                0.000000     -0.000000     -0.000000

  FREE ENERGIE OF THE ION-ELECTRON SYSTEM (eV)
  free  energy   TOTEN  =         5.26242757 eV

  energy  without entropy=        5.26535731  energy(sigma->0) =        5.26389244

 d Force = 0.0000000E+00[ 0.000E+00, 0.000E+00]  d Energy = 0.3141185E-05-0.314E-05
 d Force = 0.0000000E+00[ 0.000E+00, 0.000E+00]  d Ewald  =-0.4500972E-03 0.450E-03

 reached required accuracy - stopping structural energy minimisation
 writing wavefunctions