 vasp.5.4.1 24Jun15 (build Jul 19 2016 16:50:41) complex

 executed on           IFC91_ompi date 2019.10.17  12:21:23

 INCAR:
 POTCAR:    PAW Fe 03Mar1998
 POTCAR:    PAW Fe 03Mar1998
   VRHFIN =Fe:  d7 s1

   TITEL  = PAW Fe 03Mar1998
   POMASS =   55.847; ZVAL   =    8.000    mass and valenz
   ENMAX  =  267.969; ENMIN  =  200.977 eV

  PAW Fe 03Mar1998                      :

 POSCAR: Fe BCC
  positions in direct lattice
  velocities in cartesian coordinates
 exchange correlation table for  LEXCH =        2
   RHO(1)=    0.500       N(1)  =     2000
   RHO(2)=  100.500       N(2)  =     4000

 ion  position               nearest neighbor table
   1  0.000  0.000  0.000-

  LATTYP: Found a body centered cubic cell.
 ALAT       =     2.6000000000

  Lattice vectors:

 A1 = (  -1.3000000000,   1.3000000000,   1.3000000000)
 A2 = (   1.3000000000,  -1.3000000000,   1.3000000000)
 A3 = (   1.3000000000,   1.3000000000,  -1.3000000000)

Analysis of symmetry for initial positions (statically):
 Subroutine PRICEL returns:
 Original cell was already a primitive cell.

 Routine SETGRP: Setting up the symmetry group for a
 body centered cubic supercell.

 Subroutine GETGRP returns: Found 48 space group operations
 (whereof 48 operations were pure point group operations)
 out of a pool of 48 trial point group operations.

The static configuration has the point symmetry O_h .

Analysis of symmetry for dynamics (positions and initial velocities):
 Subroutine PRICEL returns:
 Original cell was already a primitive cell.

[...]

The dynamic configuration has the point symmetry O_h .

Analysis of structural, dynamic, and magnetic symmetry:
 Subroutine PRICEL returns:
 Original cell was already a primitive cell.

 Routine SETGRP: Setting up the symmetry group for a
 body centered cubic supercell.

 Subroutine GETGRP returns: Found 48 space group operations
 (whereof 48 operations were pure point group operations)
 out of a pool of 48 trial point group operations.

The magnetic configuration has the point symmetry O_h .

 Subroutine INISYM returns: Found 48 space group operations
 (whereof 48 operations are pure point group operations),
 and found     1 'primitive' translations

 KPOINTS: K-Points

Automatic generation of k-mesh.
Space group operators:
 irot       det(A)        alpha          n_x          n_y          n_z        tau_x        tau_y        tau_z
    1     1.000000     0.000000     1.000000     0.000000     0.000000     0.000000     0.000000     0.000000
    2    -1.000000     0.000000     1.000000     0.000000     0.000000     0.000000     0.000000     0.000000
    3     1.000000   120.000000    -0.577350    -0.577350    -0.577350     0.000000     0.000000     0.000000
    4    -1.000000   120.000000    -0.577350    -0.577350    -0.577350     0.000000     0.000000     0.000000
    5     1.000000   120.000000     0.577350     0.577350     0.577350     0.000000     0.000000     0.000000
    6    -1.000000   120.000000     0.577350     0.577350     0.577350     0.000000     0.000000     0.000000
    7     1.000000    90.000000     0.000000     0.000000    -1.000000     0.000000     0.000000     0.000000
    8    -1.000000    90.000000     0.000000     0.000000    -1.000000     0.000000     0.000000     0.000000
    9     1.000000   180.000000     0.000000     0.707107     0.707107     0.000000     0.000000     0.000000
   10    -1.000000   180.000000     0.000000     0.707107     0.707107     0.000000     0.000000     0.000000
   11     1.000000    90.000000     0.000000     1.000000     0.000000     0.000000     0.000000     0.000000
   12    -1.000000    90.000000     0.000000     1.000000     0.000000     0.000000     0.000000     0.000000
   13     1.000000   180.000000     0.000000     0.000000     1.000000     0.000000     0.000000     0.000000
   14    -1.000000   180.000000     0.000000     0.000000     1.000000     0.000000     0.000000     0.000000
   15     1.000000   120.000000    -0.577350     0.577350     0.577350     0.000000     0.000000     0.000000
   16    -1.000000   120.000000    -0.577350     0.577350     0.577350     0.000000     0.000000     0.000000
   17     1.000000   120.000000    -0.577350     0.577350    -0.577350     0.000000     0.000000     0.000000
   18    -1.000000   120.000000    -0.577350     0.577350    -0.577350     0.000000     0.000000     0.000000
   19     1.000000    90.000000     0.000000     0.000000     1.000000     0.000000     0.000000     0.000000
   20    -1.000000    90.000000     0.000000     0.000000     1.000000     0.000000     0.000000     0.000000
   21     1.000000    90.000000    -1.000000     0.000000     0.000000     0.000000     0.000000     0.000000
   22    -1.000000    90.000000    -1.000000     0.000000     0.000000     0.000000     0.000000     0.000000
   23     1.000000   180.000000     0.707107     0.000000     0.707107     0.000000     0.000000     0.000000
   24    -1.000000   180.000000     0.707107     0.000000     0.707107     0.000000     0.000000     0.000000
   25     1.000000   120.000000     0.577350    -0.577350     0.577350     0.000000     0.000000     0.000000
   26    -1.000000   120.000000     0.577350    -0.577350     0.577350     0.000000     0.000000     0.000000
   27     1.000000   120.000000    -0.577350    -0.577350     0.577350     0.000000     0.000000     0.000000
   28    -1.000000   120.000000    -0.577350    -0.577350     0.577350     0.000000     0.000000     0.000000
   29     1.000000   180.000000     1.000000     0.000000     0.000000     0.000000     0.000000     0.000000
   30    -1.000000   180.000000     1.000000     0.000000     0.000000     0.000000     0.000000     0.000000
   31     1.000000    90.000000     0.000000    -1.000000     0.000000     0.000000     0.000000     0.000000
   32    -1.000000    90.000000     0.000000    -1.000000     0.000000     0.000000     0.000000     0.000000
   33     1.000000   180.000000     0.707107     0.707107     0.000000     0.000000     0.000000     0.000000
   34    -1.000000   180.000000     0.707107     0.707107     0.000000     0.000000     0.000000     0.000000
   35     1.000000    90.000000     1.000000     0.000000     0.000000     0.000000     0.000000     0.000000
   36    -1.000000    90.000000     1.000000     0.000000     0.000000     0.000000     0.000000     0.000000
   37     1.000000   120.000000     0.577350    -0.577350    -0.577350     0.000000     0.000000     0.000000
   38    -1.000000   120.000000     0.577350    -0.577350    -0.577350     0.000000     0.000000     0.000000
   39     1.000000   180.000000     0.000000     1.000000     0.000000     0.000000     0.000000     0.000000
   40    -1.000000   180.000000     0.000000     1.000000     0.000000     0.000000     0.000000     0.000000
   41     1.000000   120.000000     0.577350     0.577350    -0.577350     0.000000     0.000000     0.000000
   42    -1.000000   120.000000     0.577350     0.577350    -0.577350     0.000000     0.000000     0.000000
   43     1.000000   180.000000     0.000000    -0.707107     0.707107     0.000000     0.000000     0.000000
   44    -1.000000   180.000000     0.000000    -0.707107     0.707107     0.000000     0.000000     0.000000
   45     1.000000   180.000000     0.707107    -0.707107     0.000000     0.000000     0.000000     0.000000
   46    -1.000000   180.000000     0.707107    -0.707107     0.000000     0.000000     0.000000     0.000000
   47     1.000000   180.000000     0.707107     0.000000    -0.707107     0.000000     0.000000     0.000000
   48    -1.000000   180.000000     0.707107     0.000000    -0.707107     0.000000     0.000000     0.000000

 Subroutine IBZKPT returns following result:

 Found     26 irreducible k-points:

 Following reciprocal coordinates:
            Coordinates               Weight
  0.062500  0.062500  0.062500      8.000000
  0.187500  0.062500  0.062500     24.000000
  0.312500  0.062500  0.062500     24.000000
  0.437500  0.062500  0.062500     12.000000
 -0.062500  0.062500  0.062500      6.000000
  0.187500  0.187500  0.062500     24.000000
  0.312500  0.187500  0.062500     48.000000
 -0.187500  0.187500  0.062500     24.000000
  0.312500  0.312500  0.062500      8.000000
 -0.312500  0.312500  0.062500     24.000000
 -0.187500  0.312500  0.062500     24.000000
 -0.437500  0.437500  0.062500     24.000000
 -0.312500  0.437500  0.062500     48.000000
 -0.437500 -0.437500  0.062500     24.000000
 -0.312500 -0.437500  0.062500     24.000000
  0.187500  0.187500  0.187500      8.000000
  0.312500  0.187500  0.187500     12.000000
 -0.187500  0.187500  0.187500      6.000000
 -0.312500  0.312500  0.187500     24.000000
 -0.437500  0.437500  0.187500     24.000000
 -0.312500  0.437500  0.187500     24.000000
 -0.437500 -0.437500  0.187500     24.000000
 -0.312500  0.312500  0.312500      6.000000
 -0.437500  0.437500  0.312500     24.000000
 -0.437500 -0.437500  0.312500      8.000000
 -0.437500  0.437500  0.437500      6.000000

 Following cartesian coordinates:
            Coordinates               Weight
  0.125000  0.125000  0.125000      8.000000
  0.125000  0.250000  0.250000     24.000000
  0.125000  0.375000  0.375000     24.000000
  0.125000  0.500000  0.500000     12.000000
  0.125000  0.000000  0.000000      6.000000
  0.250000  0.250000  0.375000     24.000000
  0.250000  0.375000  0.500000     48.000000
  0.250000 -0.125000  0.000000     24.000000
  0.375000  0.375000  0.625000      8.000000
  0.375000 -0.250000  0.000000     24.000000
  0.375000 -0.125000  0.125000     24.000000
  0.500000 -0.375000  0.000000     24.000000
  0.500000 -0.250000  0.125000     48.000000
 -0.375000 -0.375000 -0.875000     24.000000
 -0.375000 -0.250000 -0.750000     24.000000
  0.375000  0.375000  0.375000      8.000000
  0.375000  0.500000  0.500000     12.000000
  0.375000  0.000000  0.000000      6.000000
  0.500000 -0.125000  0.000000     24.000000
  0.625000 -0.250000  0.000000     24.000000
  0.625000 -0.125000  0.125000     24.000000
 -0.250000 -0.250000 -0.875000     24.000000
  0.625000  0.000000  0.000000      6.000000
  0.750000 -0.125000  0.000000     24.000000
 -0.125000 -0.125000 -0.875000      8.000000
  0.875000  0.000000  0.000000      6.000000

 TETIRR: Found    534 inequivalent tetrahedra from     3072

 I would recommend the setting:
   dimension x,y,z NGX =    15 NGY =   15 NGZ =   15
 SYSTEM =  Fe BCC
 POSCAR =  Fe BCC

 Startparameter for this run:
   NWRITE =      2    write-flag & timer
   PREC   = accura    normal or accurate (medium, high low for compatibility)
   ISTART =      0    job   : 0-new  1-cont  2-samecut
   ICHARG =      2    charge: 1-file 2-atom 10-const
   ISPIN  =      2    spin polarized calculation?
   LNONCOLLINEAR =      F non collinear calculations
   LSORBIT =      F    spin-orbit coupling
   INIWAV =      1    electr: 0-lowe 1-rand  2-diag
   LASPH  =      F    aspherical Exc in radial PAW
   METAGGA=      F    non-selfconsistent MetaGGA calc.

 Electronic Relaxation 1
   ENCUT  =  400.0 eV  29.40 Ry    5.42 a.u.   3.67  3.67  3.67*2*pi/ulx,y,z
   ENINI  =  400.0     initial cutoff
   ENAUG  =  511.4 eV  augmentation charge cutoff
[...]
     AMIX_MAG =   1.60;   BMIX_MAG =  1.00
     AMIN     =   0.10
     WC   =   100.;   INIMIX=   1;  MIXPRE=   1;  MAXMIX= -45

 Intra band minimization:
   WEIMIN = 0.0000     energy-eigenvalue tresh-hold
   EBREAK =  0.21E-07  absolut break condition
   DEPER  =   0.30     relativ break condition

   TIME   =   0.40     timestep for ELM

  volume/ion in A,a.u.               =       8.79        59.30
  Fermi-wavevector in a.u.,A,eV,Ry     =   1.586627  2.998290 34.251101  2.517385
  Thomas-Fermi vector in A             =   2.685909

 Write flags
   LWAVE  =      T    write WAVECAR
   LCHARG =      T    write CHGCAR
   LVTOT  =      F    write LOCPOT, total local potential
   LVHAR  =      F    write LOCPOT, Hartree potential only
   LELF   =      F    write electronic localiz. function (ELF)
   LORBIT =     11    0 simple, 1 ext, 2 COOP (PROOUT)

 Dipole corrections
   LMONO  =      F    monopole corrections only (constant potential shift)
   LDIPOL =      F    correct potential (dipole corrections)
   IDIPOL =      0    1-x, 2-y, 3-z, 4-all directions
   EPSILON=  1.0000000 bulk dielectric constant

 Exchange correlation treatment:
   GGA     =    --    GGA type
   VOSKOWN=      0    Vosko Wilk Nusair interpolation
   LHFCALC =     F    Hartree Fock is set to
   LHFONE  =     F    Hartree Fock one center treatment
   AEXX    =    0.0000 exact exchange contribution

 Linear response parameters
   LEPSILON=     F    determine dielectric tensor
   LRPA    =     F    only Hartree local field effects (RPA)
   LNABLA  =     F    use nabla operator in PAW spheres
   LVEL    =     F    velocity operator in full k-point grid
   LINTERFAST=   F  fast interpolation
   KINTER  =     0    interpolate to denser k-point grid
   CSHIFT  =0.1000    complex shift for real part using Kramers Kronig
   OMEGAMAX=  -1.0    maximum frequency
   DEG_THRESHOLD= 0.2000000E-02 threshold for treating states as degnerate
   RTIME   =    0.100 relaxation time in fs

 Orbital magnetization related:
   ORBITALMAG=     F  switch on orbital magnetization
   LCHIMAG   =     F  perturbation theory with respect to B field
   DQ        =  0.001000  dq finite difference perturbation B field

 Static calculation
 charge density and potential will be updated during run
 spin polarized calculation
 Variant of blocked Davidson
 Davidson routine will perform the subspace rotation
 perform sub-space diagonalisation
    after iterative eigenvector-optimisation
 modified Broyden-mixing scheme, WC =      100.0
 initial mixing is a Kerker type mixing with AMIX =  0.4000 and BMIX =      1.0000
 Hartree-type preconditioning will be used
 using additional bands            8
 reciprocal scheme for non local part
 use partial core corrections
 calculate Harris-corrections to forces
   (improved forces if not selfconsistent)
 use of overlap-Matrix (Vanderbilt PP)
 Fermi weights with tetrahedron method with Bloechl corrections

  energy-cutoff  :      400.00
  volume of cell :        8.79
      direct lattice vectors                 reciprocal lattice vectors
    -1.300000000  1.300000000  1.300000000     0.000000000  0.384615385  0.384615385
     1.300000000 -1.300000000  1.300000000     0.384615385  0.000000000  0.384615385
     1.300000000  1.300000000 -1.300000000     0.384615385  0.384615385  0.000000000

  length of vectors
     2.251666050  2.251666050  2.251666050     0.543928293  0.543928293  0.543928293

 k-points in units of 2pi/SCALE and weight: K-Points
   0.12500000  0.12500000  0.12500000       0.016
   0.12500000  0.25000000  0.25000000       0.047
   0.12500000  0.37500000  0.37500000       0.047
   0.12500000  0.50000000  0.50000000       0.023
   0.12500000  0.00000000  0.00000000       0.012
   0.25000000  0.25000000  0.37500000       0.047
   0.25000000  0.37500000  0.50000000       0.094
   0.25000000 -0.12500000  0.00000000       0.047
   0.37500000  0.37500000  0.62500000       0.016
   0.37500000 -0.25000000  0.00000000       0.047
   0.37500000 -0.12500000  0.12500000       0.047
   0.50000000 -0.37500000  0.00000000       0.047
   0.50000000 -0.25000000  0.12500000       0.094
  -0.37500000 -0.37500000 -0.87500000       0.047
  -0.37500000 -0.25000000 -0.75000000       0.047
   0.37500000  0.37500000  0.37500000       0.016
   0.37500000  0.50000000  0.50000000       0.023
   0.37500000  0.00000000  0.00000000       0.012
   0.50000000 -0.12500000  0.00000000       0.047
   0.62500000 -0.25000000  0.00000000       0.047
   0.62500000 -0.12500000  0.12500000       0.047
  -0.25000000 -0.25000000 -0.87500000       0.047
   0.62500000  0.00000000  0.00000000       0.012
   0.75000000 -0.12500000  0.00000000       0.047
  -0.12500000 -0.12500000 -0.87500000       0.016
   0.87500000  0.00000000  0.00000000       0.012

 k-points in reciprocal lattice and weights: K-Points
   0.06250000  0.06250000  0.06250000       0.016
   0.18750000  0.06250000  0.06250000       0.047
   0.31250000  0.06250000  0.06250000       0.047
   0.43750000  0.06250000  0.06250000       0.023
  -0.06250000  0.06250000  0.06250000       0.012
   0.18750000  0.18750000  0.06250000       0.047
   0.31250000  0.18750000  0.06250000       0.094
  -0.18750000  0.18750000  0.06250000       0.047
   0.31250000  0.31250000  0.06250000       0.016
  -0.31250000  0.31250000  0.06250000       0.047
  -0.18750000  0.31250000  0.06250000       0.047
  -0.43750000  0.43750000  0.06250000       0.047
  -0.31250000  0.43750000  0.06250000       0.094
  -0.43750000 -0.43750000  0.06250000       0.047
  -0.31250000 -0.43750000  0.06250000       0.047
   0.18750000  0.18750000  0.18750000       0.016
   0.31250000  0.18750000  0.18750000       0.023
  -0.18750000  0.18750000  0.18750000       0.012
  -0.31250000  0.31250000  0.18750000       0.047
  -0.43750000  0.43750000  0.18750000       0.047
  -0.31250000  0.43750000  0.18750000       0.047
  -0.43750000 -0.43750000  0.18750000       0.047
  -0.31250000  0.31250000  0.31250000       0.012
  -0.43750000  0.43750000  0.31250000       0.047
  -0.43750000 -0.43750000  0.31250000       0.016
  -0.43750000  0.43750000  0.43750000       0.012

 position of ions in fractional coordinates (direct lattice)
   0.00000000  0.00000000  0.00000000

 position of ions in cartesian coordinates  (Angst):
   0.00000000  0.00000000  0.00000000

 k-point  1 :   0.0625 0.0625 0.0625  plane waves:     156
 k-point  2 :   0.1875 0.0625 0.0625  plane waves:     159
 k-point  3 :   0.3125 0.0625 0.0625  plane waves:     165
 k-point  4 :   0.4375 0.0625 0.0625  plane waves:     158
 k-point  5 :  -0.0625 0.0625 0.0625  plane waves:     157
 k-point  6 :   0.1875 0.1875 0.0625  plane waves:     162
 k-point  7 :   0.3125 0.1875 0.0625  plane waves:     159
 k-point  8 :  -0.1875 0.1875 0.0625  plane waves:     159
 k-point  9 :   0.3125 0.3125 0.0625  plane waves:     158
 k-point 10 :  -0.3125 0.3125 0.0625  plane waves:     161
 k-point 11 :  -0.1875 0.3125 0.0625  plane waves:     161
 k-point 12 :  -0.4375 0.4375 0.0625  plane waves:     160
 k-point 13 :  -0.3125 0.4375 0.0625  plane waves:     162
 k-point 14 :  -0.4375-0.4375 0.0625  plane waves:     158
 k-point 15 :  -0.3125-0.4375 0.0625  plane waves:     155
 k-point 16 :   0.1875 0.1875 0.1875  plane waves:     156
 k-point 17 :   0.3125 0.1875 0.1875  plane waves:     156
 k-point 18 :  -0.1875 0.1875 0.1875  plane waves:     160
 k-point 19 :  -0.3125 0.3125 0.1875  plane waves:     161
 k-point 20 :  -0.4375 0.4375 0.1875  plane waves:     162
 k-point 21 :  -0.3125 0.4375 0.1875  plane waves:     159
 k-point 22 :  -0.4375-0.4375 0.1875  plane waves:     156
 k-point 23 :  -0.3125 0.3125 0.3125  plane waves:     156
 k-point 24 :  -0.4375 0.4375 0.3125  plane waves:     157
 k-point 25 :  -0.4375-0.4375 0.3125  plane waves:     161
 k-point 26 :  -0.4375 0.4375 0.4375  plane waves:     160

 maximum and minimum number of plane-waves per node :       165      155

 maximum number of plane-waves:       165
 maximum index in each direction:
   IXMAX=    4   IYMAX=    4   IZMAX=    3
   IXMIN=   -4   IYMIN=   -4   IZMIN=   -4

 WARNING: aliasing errors must be expected set NGX to  18 to avoid them
 WARNING: aliasing errors must be expected set NGY to  18 to avoid them
 NGZ is ok and might be reduce to  16
 aliasing errors are usually negligible using standard VASP settings
 and one can safely disregard these warnings

 serial   3D FFT for wavefunctions
 parallel 3D FFT for charge:
    minimum data exchange during FFTs selected (reduces bandwidth)

 Broyden mixing: mesh for mixing (old mesh)
   NGX =  7   NGY =  7   NGZ =  7
  (NGX  = 32   NGY  = 32   NGZ  = 32)
  gives a total of    343 points

 initial charge density was supplied:
 charge density of overlapping atoms calculated
 number of electron       8.0000000 magnetization       4.0000000
 keeping initial charge density in first step

 Maximum index for augmentation-charges         4037 (set IRDMAX)

 First call to EWALD:  gamma=   0.859
 Maximum number of real-space cells 3x 3x 3
 Maximum number of reciprocal cells 3x 3x 3

 FEWALD executed in parallel

----------------------------------------- Iteration    1(   1)  ---------------------------------------

 BZINTS: Fermi energy: 16.002387;  8.000000 electrons
         Band energy:  82.420390;  BLOECHL correction: -0.367055

 eigenvalue-minimisations  :  1432
 total energy-change (2. order) : 0.1684116E+02  (-0.3573241E+03)
 number of electron       8.0000000 magnetization       4.0000000
 augmentation part        8.0000000 magnetization       4.0000000

 Free energy of the ion-electron system (eV)
  alpha Z        PSCENC =        76.21351388
  Ewald energy   TEWEN  =      -644.97461067
  -Hartree energ DENC   =       -91.98284098
  -exchange      EXHF   =         0.00000000
  -V(xc)+E(xc)   XCENC  =         7.24561788
  PAW double counting   =       552.76102510     -562.19386350
  entropy T*S    EENTRO =         0.00000000
  eigenvalues    EBANDS =        82.42039049
  atomic energy  EATOM  =       597.35192723
  Solvation  Ediel_sol  =         0.00000000
  free energy    TOTEN  =        16.84115943 eV

  energy without entropy =       16.84115943  energy(sigma->0) =       16.84115943

[...]

 eigenvalue-minimisations  :  1308
 total energy-change (2. order) :-0.2551533E+02  (-0.2342863E+02)
 number of electron       8.0000000 magnetization       4.0000000
 augmentation part        8.0000000 magnetization       4.0000000

[...]

 Broyden mixing:
  rms(total) = 0.18487E+01    rms(broyden)= 0.18485E+01
  rms(prec ) = 0.35244E+01
  weight for this iteration     100.00

[...]

 eigenvalues of (default mixing * dielectric matrix)
  average eigenvalue GAMMA=   1.0081
  1.0081

[...]

 eigenvalue-minimisations  :   928
 total energy-change (2. order) :-0.2006400E-04  (-0.3561799E-07)
 number of electron       7.9999994 magnetization       1.5895183
 augmentation part        4.1087447 magnetization       1.2924906

[...]

 Broyden mixing:
  rms(total) = 0.71608E-04    rms(broyden)= 0.71575E-04
  rms(prec ) = 0.71870E-04
  weight for this iteration     100.00

 eigenvalues of (default mixing * dielectric matrix)
  average eigenvalue GAMMA=   1.2372
  2.6391  2.4411  1.4718  1.0299  0.8818  0.7866  0.6000  0.6423  0.6423

[...]

----------------------------------------- Iteration    1(  15)  ---------------------------------------

[...]

 eigenvalue-minimisations  :   660
 total energy-change (2. order) : 0.3393171E-06  (-0.3121849E-09)
 number of electron       7.9999994 magnetization       1.5904775
 augmentation part        4.1088118 magnetization       1.2933724

 Free energy of the ion-electron system (eV)
  alpha Z        PSCENC =        76.21351388
  Ewald energy   TEWEN  =      -644.97461067
  -Hartree energ DENC   =       -76.32003797
  -exchange      EXHF   =         0.00000000
  -V(xc)+E(xc)   XCENC  =         4.83916521
  PAW double counting   =       866.92838924     -878.78016415
  entropy T*S    EENTRO =         0.00000000
  eigenvalues    EBANDS =        45.76091690
  atomic energy  EATOM  =       597.35192723
  Solvation  Ediel_sol  =         0.00000000
  free energy    TOTEN  =        -8.98090033 eV

  energy without entropy =       -8.98090033  energy(sigma->0) =       -8.98090033

 average (electrostatic) potential at core
  the test charge radii are     1.0103
  (the norm of the test charge is              1.0000)
       1 -41.2302

 E-fermi :   8.8907     XC(G=0): -14.9252     alpha+bet :-17.5424

 spin component 1

 k-point     1 :       0.0625    0.0625    0.0625
  band No.  band energies     occupation
      1      -0.1145      1.00000
      2       5.6339      1.00000
      3       5.6339      1.00000
      4       6.8555      1.00000
      5       7.8576      1.00000
      6       7.8576      1.00100
      7      33.0587      0.00000
      8      33.0587      0.00000
      9      37.2175      0.00000
     10      39.9548      0.00000
     11      44.6004      0.00000
     12      44.6004      0.00000

[...]

 spin component 2

[...]

 k-point    26 :      -0.4375    0.4375    0.4375
  band No.  band energies     occupation
      1       3.6237      1.00000
      2       3.6287      1.00000
      3      10.5768     -0.24639
      4      10.5768     -0.01442
      5      10.8847      0.00000
      6      19.2448      0.00000
      7      21.9524      0.00000
      8      21.9524      0.00000
      9      28.6379      0.00000
     10      29.7717      0.00000
     11      37.7620      0.00000
     12      53.1095      0.00000

 soft charge-density along one line, spin component           1
         0         1         2         3         4         5         6         7         8         9
 total charge-density along one line

 soft charge-density along one line, spin component           2
         0         1         2         3         4         5         6         7         8         9
 total charge-density along one line

------------------------ aborting loop because EDIFF is reached ----------------------------------------

 total charge

# of ion     s       p       d       tot
  1        0.613   0.800   6.539   7.952

 magnetization (x)

[...]

  FORCE on cell =-STRESS in cart. coord.  units (eV):
  Direction    XX          YY          ZZ          XY          YZ          ZX
  Alpha Z    76.21351    76.21351    76.21351
  Ewald    -214.99153  -214.99153  -214.99153    -0.00000     0.00000    -0.00000
  Hartree    25.44003    25.44003    25.44003    -0.00000    -0.00000    -0.00000
  E(xc)     -40.48871   -40.48871   -40.48871    -0.00000    -0.00000    -0.00000
  Local      65.25122    65.25122    65.25122    -0.00000    -0.00000    -0.00000
  n-local   -24.82055   -22.89510   -21.71982     1.22910    -1.35390    -2.02576
  augment    37.37163    37.37163    37.37163     0.00000     0.00000     0.00000
  Kinetic    77.19645    77.87230    77.85934    -0.57495     2.40898     1.01615
  Fock        0.00000     0.00000     0.00000     0.00000     0.00000     0.00000
  Total       3.29369     3.29369     3.29369     0.00000     0.00000    -0.00000
  in kB     600.48664   600.48664   600.48664     0.00000     0.00000    -0.00000

 VOLUME and BASIS-vectors are now :
  energy-cutoff  :      400.00
  volume of cell :        8.79
      direct lattice vectors                 reciprocal lattice vectors
    -1.300000000  1.300000000  1.300000000     0.000000000  0.384615385  0.384615385
     1.300000000 -1.300000000  1.300000000     0.384615385  0.000000000  0.384615385
     1.300000000  1.300000000 -1.300000000     0.384615385  0.384615385  0.000000000

  length of vectors
     2.251666050  2.251666050  2.251666050     0.543928293  0.543928293  0.543928293

 FORCES acting on ions
    electron-ion (+dipol)            ewald-force                    non-local-force                 convergence-correction
   0.415E-14 0.319E-14 -.781E-14   -.360E-15 -.313E-15 -.209E-14   0.129E-25 -.129E-25 -.129E-25   0.472E-14 0.698E-14 0.896E-14
   0.415E-14 0.319E-14 -.781E-14   -.360E-15 -.313E-15 -.209E-14   0.129E-25 -.129E-25 -.129E-25   0.472E-14 0.698E-14 0.896E-14

 POSITION                                       TOTAL-FORCE (eV/Angst)
      0.00000      0.00000      0.00000        -0.000000     -0.000000      0.000000
    total drift:                                0.000000      0.000000     -0.000000

  FREE ENERGIE OF THE ION-ELECTRON SYSTEM (eV)
  free  energy   TOTEN  =        -8.98090033 eV

  energy  without entropy=       -8.98090033  energy(sigma->0) =       -8.98090033

 writing wavefunctions

 total charge

[...]

 magnetization (x)

# of ion     s       p       d       tot
  1       -0.007  -0.037   1.592   1.548

 BZINTS: Fermi energy:  8.890731;  8.000000 electrons
         Band energy:  45.760917;  BLOECHL correction: -0.116154