 vasp.5.4.1 24Jun15 (build Jul 19 2016 16:50:41) complex

 executed on           IFC91_ompi date 2019.10.10  11:09:39

 INCAR:
 POTCAR:    PAW_PBE Si 05Jan2001
 POTCAR:    PAW_PBE Si 05Jan2001
   VRHFIN = Si: s2p2

   TITEL  = PAW_PBE Si 05Jan2001
   POMASS =   28.085; ZVAL   =    4.000    mass and valenz
   ENMAX  =  245.345; ENMIN  =  184.009 eV

  PAW_PBE Si 05Jan2001                  :

 POSCAR: Si HCP
  positions in direct lattice
 exchange correlation table for  LEXCH =        8
   RHO(1)=    0.500       N(1)  =     2000
   RHO(2)=  100.500       N(2)  =     4000

 ion  position               nearest neighbor table
   1  0.000  0.000  0.000-   2 2.10   2 2.10   2 2.10   2 2.10   2 2.10   2 2.10   2 2.97   2 2.97
                             2 2.97   2 2.97   2 2.97   2 2.97
   2  0.333  0.667  0.500-   1 2.10   1 2.10   1 2.10   1 2.10   1 2.10   1 2.10   1 2.97   1 2.97
                             1 2.97   1 2.97   1 2.97   1 2.97

  LATTYP: Found a hexagonal cell.
 ALAT       =     2.1000000000
 C/A-ratio  =     1.6329900000

  Lattice vectors:

 A1 = (   2.1000000000,   0.0000000000,   0.0000000000)
 A2 = (  -1.0500000000,   1.8186533479,   0.0000000000)
 A3 = (   0.0000000000,   0.0000000000,   3.4292790000)

Analysis of symmetry for initial positions (statically):
 Subroutine PRICEL returns:
 Original cell was already a primitive cell.

 Routine SETGRP: Setting up the symmetry group for a
 hexagonal supercell.

 Subroutine GETGRP returns: Found 24 space group operations
 (whereof 12 operations were pure point group operations)
 out of a pool of 24 trial point group operations.

The static configuration has the point symmetry D_3h.
 The point group associated with its full space group is D_6h.

Analysis of symmetry for dynamics (positions and initial velocities):
 Subroutine PRICEL returns:
 Original cell was already a primitive cell.

 Routine SETGRP: Setting up the symmetry group for a
 hexagonal supercell.

 Subroutine GETGRP returns: Found 24 space group operations
 (whereof 12 operations were pure point group operations)
 out of a pool of 24 trial point group operations.

The dynamic configuration has the point symmetry D_3h.
 The point group associated with its full space group is D_6h.

 Subroutine INISYM returns: Found 24 space group operations
 (whereof 12 operations are pure point group operations),
 and found     1 'primitive' translations

 KPOINTS: K-Points

Automatic generation of k-mesh.
Space group operators:
 irot       det(A)        alpha          n_x          n_y          n_z        tau_x        tau_y        tau_z
    1     1.000000     0.000000     1.000000     0.000000     0.000000     0.000000     0.000000     0.000000
    2    -1.000000    60.000000     0.000000     0.000000    -1.000000     0.000000     0.000000     0.000000
    3     1.000000   120.000000     0.000000     0.000000    -1.000000     0.000000     0.000000     0.000000
    4    -1.000000   180.000000     0.000000     0.000000     1.000000     0.000000     0.000000     0.000000
    5     1.000000   120.000000     0.000000     0.000000     1.000000     0.000000     0.000000     0.000000
    6    -1.000000    60.000000     0.000000     0.000000     1.000000     0.000000     0.000000     0.000000
    7    -1.000000   180.000000     1.000000     0.000000     0.000000     0.000000     0.000000     0.000000
    8     1.000000   180.000000     0.866025    -0.500000     0.000000     0.000000     0.000000     0.000000
    9    -1.000000   180.000000     0.500000    -0.866025     0.000000     0.000000     0.000000     0.000000
   10     1.000000   180.000000     0.000000     1.000000     0.000000     0.000000     0.000000     0.000000
   11    -1.000000   180.000000    -0.500000    -0.866025     0.000000     0.000000     0.000000     0.000000
   12     1.000000   180.000000     0.866025     0.500000     0.000000     0.000000     0.000000     0.000000
   13    -1.000000     0.000000     1.000000     0.000000     0.000000     0.333333     0.666667     0.500000
   14     1.000000    60.000000     0.000000     0.000000    -1.000000     0.333333     0.666667     0.500000
   15    -1.000000   120.000000     0.000000     0.000000    -1.000000     0.333333     0.666667     0.500000
   16     1.000000   180.000000     0.000000     0.000000     1.000000     0.333333     0.666667     0.500000
   17    -1.000000   120.000000     0.000000     0.000000     1.000000     0.333333     0.666667     0.500000
   18     1.000000    60.000000     0.000000     0.000000     1.000000     0.333333     0.666667     0.500000
   19     1.000000   180.000000     1.000000     0.000000     0.000000     0.333333     0.666667     0.500000
   20    -1.000000   180.000000     0.866025    -0.500000     0.000000     0.333333     0.666667     0.500000
   21     1.000000   180.000000     0.500000    -0.866025     0.000000     0.333333     0.666667     0.500000
   22    -1.000000   180.000000     0.000000     1.000000     0.000000     0.333333     0.666667     0.500000
   23     1.000000   180.000000    -0.500000    -0.866025     0.000000     0.333333     0.666667     0.500000
   24    -1.000000   180.000000     0.866025     0.500000     0.000000     0.333333     0.666667     0.500000

 Subroutine IBZKPT returns following result:

 Found     36 irreducible k-points:

 Following reciprocal coordinates:
            Coordinates               Weight
  0.083333  0.083333  0.083333     96.000000
  0.250000  0.083333  0.083333    192.000000
  0.416667  0.083333  0.083333    192.000000
 -0.416667  0.083333  0.083333    192.000000
 -0.250000  0.083333  0.083333    192.000000
 -0.083333  0.083333  0.083333     96.000000
  0.250000  0.250000  0.083333     96.000000
  0.416667  0.250000  0.083333    192.000000
 -0.416667  0.250000  0.083333    192.000000
 -0.250000  0.250000  0.083333     96.000000
  0.416667  0.416667  0.083333     96.000000
 -0.416667  0.416667  0.083333     96.000000
  0.083333  0.083333  0.250000     96.000000
  0.250000  0.083333  0.250000    192.000000
  0.416667  0.083333  0.250000    192.000000
 -0.416667  0.083333  0.250000    192.000000
 -0.250000  0.083333  0.250000    192.000000
 -0.083333  0.083333  0.250000     96.000000
  0.250000  0.250000  0.250000     96.000000
  0.416667  0.250000  0.250000    192.000000
 -0.416667  0.250000  0.250000    192.000000
 -0.250000  0.250000  0.250000     96.000000
  0.416667  0.416667  0.250000     96.000000
 -0.416667  0.416667  0.250000     96.000000
  0.083333  0.083333  0.416667     96.000000
  0.250000  0.083333  0.416667    192.000000
  0.416667  0.083333  0.416667    192.000000
 -0.416667  0.083333  0.416667    192.000000
 -0.250000  0.083333  0.416667    192.000000
 -0.083333  0.083333  0.416667     96.000000
  0.250000  0.250000  0.416667     96.000000
  0.416667  0.250000  0.416667    192.000000
 -0.416667  0.250000  0.416667    192.000000
 -0.250000  0.250000  0.416667     96.000000
  0.416667  0.416667  0.416667     96.000000
 -0.416667  0.416667  0.416667     96.000000

 Following cartesian coordinates:
            Coordinates               Weight
  0.083333  0.144338  0.051031     96.000000
  0.250000  0.240563  0.051031    192.000000
  0.416667  0.336788  0.051031    192.000000
 -0.416667 -0.144338  0.051031    192.000000
 -0.250000 -0.048113  0.051031    192.000000
 -0.083333  0.048113  0.051031     96.000000
  0.250000  0.433013  0.051031     96.000000
  0.416667  0.529238  0.051031    192.000000
 -0.416667  0.048113  0.051031    192.000000
 -0.250000  0.144338  0.051031     96.000000
  0.416667  0.721688  0.051031     96.000000
 -0.416667  0.240563  0.051031     96.000000
  0.083333  0.144338  0.153093     96.000000
  0.250000  0.240563  0.153093    192.000000
  0.416667  0.336788  0.153093    192.000000
 -0.416667 -0.144338  0.153093    192.000000
 -0.250000 -0.048113  0.153093    192.000000
 -0.083333  0.048113  0.153093     96.000000
  0.250000  0.433013  0.153093     96.000000
  0.416667  0.529238  0.153093    192.000000
 -0.416667  0.048113  0.153093    192.000000
 -0.250000  0.144338  0.153093     96.000000
  0.416667  0.721688  0.153093     96.000000
 -0.416667  0.240563  0.153093     96.000000
  0.083333  0.144338  0.255156     96.000000
  0.250000  0.240563  0.255156    192.000000
  0.416667  0.336788  0.255156    192.000000
 -0.416667 -0.144338  0.255156    192.000000
 -0.250000 -0.048113  0.255156    192.000000
 -0.083333  0.048113  0.255156     96.000000
  0.250000  0.433013  0.255156     96.000000
  0.416667  0.529238  0.255156    192.000000
 -0.416667  0.048113  0.255156    192.000000
 -0.250000  0.144338  0.255156     96.000000
  0.416667  0.721688  0.255156     96.000000
 -0.416667  0.240563  0.255156     96.000000

 I would recommend the setting:
   dimension x,y,z NGX =    15 NGY =   15 NGZ =   24
 SYSTEM =  Si beta-tin
 POSCAR =  Si HCP

 Startparameter for this run:
   NWRITE =      2    write-flag & timer
   PREC   = accura    normal or accurate (medium, high low for compatibility)
   ISTART =      0    job   : 0-new  1-cont  2-samecut
   ICHARG =      2    charge: 1-file 2-atom 10-const
   ISPIN  =      1    spin polarized calculation?
   LNONCOLLINEAR =      F non collinear calculations
   LSORBIT =      F    spin-orbit coupling
   INIWAV =      1    electr: 0-lowe 1-rand  2-diag
   LASPH  =      F    aspherical Exc in radial PAW
   METAGGA=      F    non-selfconsistent MetaGGA calc.

 Electronic Relaxation 1
   ENCUT  =  450.0 eV  33.07 Ry    5.75 a.u.   3.63  3.63  5.93*2*pi/ulx,y,z
   ENINI  =  450.0     initial cutoff
   ENAUG  =  322.1 eV  augmentation charge cutoff
   NELM   =     60;   NELMIN=  2; NELMDL= -5     # of ELM steps
   EDIFF  = 0.1E-04   stopping-criterion for ELM
   LREAL  =      F    real-space projection
   NLSPLINE    = F    spline interpolate recip. space projectors
   LCOMPAT=      F    compatible to vasp.4.4
   GGA_COMPAT  = T    GGA compatible to vasp.4.4-vasp.4.6
   LMAXPAW     = -100 max onsite density
   LMAXMIX     =    2 max onsite mixed and CHGCAR
   VOSKOWN=      0    Vosko Wilk Nusair interpolation
   ROPT   =    0.00000
 Ionic relaxation
   EDIFFG = -.1E-01   stopping-criterion for IOM
   NSW    =    100    number of steps for IOM
   NBLOCK =      1;   KBLOCK =    100    inner block; outer block
   IBRION =      2    ionic relax: 0-MD 1-quasi-New 2-CG
   NFREE  =      1    steps in history (QN), initial steepest desc. (CG)
   ISIF   =      4    stress and relaxation
   IWAVPR =     11    prediction:  0-non 1-charg 2-wave 3-comb
   ISYM   =      2    0-nonsym 1-usesym 2-fastsym
   LCORR  =      T    Harris-Foulkes like correction to forces

   POTIM  = 0.5000    time-step for ionic-motion
   TEIN   =    0.0    initial temperature
   TEBEG  =    0.0;   TEEND  =   0.0 temperature during run
   SMASS  =  -3.00    Nose mass-parameter (am)
   estimated Nose-frequenzy (Omega)   =  0.10E-29 period in steps =****** mass=  -0.101E-27a.u.
   SCALEE = 1.0000    scale energy and forces
   NPACO  =    256;   APACO  = 16.0  distance and # of slots for P.C.
   PSTRESS=    0.0 pullay stress

  Mass of Ions in am
   POMASS =  28.09
  Ionic Valenz
   ZVAL   =   4.00
  Atomic Wigner-Seitz radii
  virtual crystal weights
[...]
  -0.25000000  0.14433757  0.15309341       0.019
   0.41666667  0.72168784  0.15309341       0.019
  -0.41666667  0.24056261  0.15309341       0.019
   0.08333333  0.14433757  0.25515568       0.019
   0.25000000  0.24056261  0.25515568       0.037
   0.41666667  0.33678766  0.25515568       0.037
  -0.41666667 -0.14433757  0.25515568       0.037
  -0.25000000 -0.04811252  0.25515568       0.037
  -0.08333333  0.04811252  0.25515568       0.019
   0.25000000  0.43301270  0.25515568       0.019
   0.41666667  0.52923775  0.25515568       0.037
  -0.41666667  0.04811252  0.25515568       0.037
  -0.25000000  0.14433757  0.25515568       0.019
   0.41666667  0.72168784  0.25515568       0.019
  -0.41666667  0.24056261  0.25515568       0.019

 k-points in reciprocal lattice and weights: K-Points
   0.08333333  0.08333333  0.08333333       0.019
   0.25000000  0.08333333  0.08333333       0.037
   0.41666667  0.08333333  0.08333333       0.037
  -0.41666667  0.08333333  0.08333333       0.037
  -0.25000000  0.08333333  0.08333333       0.037
  -0.08333333  0.08333333  0.08333333       0.019
   0.25000000  0.25000000  0.08333333       0.019
   0.41666667  0.25000000  0.08333333       0.037
  -0.41666667  0.25000000  0.08333333       0.037
  -0.25000000  0.25000000  0.08333333       0.019
   0.41666667  0.41666667  0.08333333       0.019
  -0.41666667  0.41666667  0.08333333       0.019
   0.08333333  0.08333333  0.25000000       0.019
   0.25000000  0.08333333  0.25000000       0.037
   0.41666667  0.08333333  0.25000000       0.037
  -0.41666667  0.08333333  0.25000000       0.037
  -0.25000000  0.08333333  0.25000000       0.037
  -0.08333333  0.08333333  0.25000000       0.019
   0.25000000  0.25000000  0.25000000       0.019
   0.41666667  0.25000000  0.25000000       0.037
  -0.41666667  0.25000000  0.25000000       0.037
  -0.25000000  0.25000000  0.25000000       0.019
   0.41666667  0.41666667  0.25000000       0.019
  -0.41666667  0.41666667  0.25000000       0.019
   0.08333333  0.08333333  0.41666667       0.019
   0.25000000  0.08333333  0.41666667       0.037
   0.41666667  0.08333333  0.41666667       0.037
  -0.41666667  0.08333333  0.41666667       0.037
  -0.25000000  0.08333333  0.41666667       0.037
  -0.08333333  0.08333333  0.41666667       0.019
   0.25000000  0.25000000  0.41666667       0.019
   0.41666667  0.25000000  0.41666667       0.037
  -0.41666667  0.25000000  0.41666667       0.037
  -0.25000000  0.25000000  0.41666667       0.019
   0.41666667  0.41666667  0.41666667       0.019
  -0.41666667  0.41666667  0.41666667       0.019

 position of ions in fractional coordinates (direct lattice)
   0.00000000  0.00000000  0.00000000
   0.33333333  0.66666667  0.50000000

 position of ions in cartesian coordinates  (Angst):
   0.00000000  0.00000000  0.00000000
  -0.00000000  1.21243557  1.71463950

 k-point  1 :   0.0833 0.0833 0.0833  plane waves:     282
 k-point  2 :   0.2500 0.0833 0.0833  plane waves:     283
 k-point  3 :   0.4167 0.0833 0.0833  plane waves:     284
 k-point  4 :  -0.4167 0.0833 0.0833  plane waves:     280
 k-point  5 :  -0.2500 0.0833 0.0833  plane waves:     282
 k-point  6 :  -0.0833 0.0833 0.0833  plane waves:     292
 k-point  7 :   0.2500 0.2500 0.0833  plane waves:     282
 k-point  8 :   0.4167 0.2500 0.0833  plane waves:     282
 k-point  9 :  -0.4167 0.2500 0.0833  plane waves:     281
 k-point 10 :  -0.2500 0.2500 0.0833  plane waves:     283
 k-point 11 :   0.4167 0.4167 0.0833  plane waves:     282
 k-point 12 :  -0.4167 0.4167 0.0833  plane waves:     280
 k-point 13 :   0.0833 0.0833 0.2500  plane waves:     290
 k-point 14 :   0.2500 0.0833 0.2500  plane waves:     283
 k-point 15 :   0.4167 0.0833 0.2500  plane waves:     284
 k-point 16 :  -0.4167 0.0833 0.2500  plane waves:     284
 k-point 17 :  -0.2500 0.0833 0.2500  plane waves:     285
 k-point 18 :  -0.0833 0.0833 0.2500  plane waves:     290
 k-point 19 :   0.2500 0.2500 0.2500  plane waves:     283
 k-point 20 :   0.4167 0.2500 0.2500  plane waves:     282
 k-point 21 :  -0.4167 0.2500 0.2500  plane waves:     285
 k-point 22 :  -0.2500 0.2500 0.2500  plane waves:     285
 k-point 23 :   0.4167 0.4167 0.2500  plane waves:     278
 k-point 24 :  -0.4167 0.4167 0.2500  plane waves:     286
 k-point 25 :   0.0833 0.0833 0.4167  plane waves:     294
 k-point 26 :   0.2500 0.0833 0.4167  plane waves:     286
 k-point 27 :   0.4167 0.0833 0.4167  plane waves:     279
 k-point 28 :  -0.4167 0.0833 0.4167  plane waves:     282
 k-point 29 :  -0.2500 0.0833 0.4167  plane waves:     292
 k-point 30 :  -0.0833 0.0833 0.4167  plane waves:     294
 k-point 31 :   0.2500 0.2500 0.4167  plane waves:     284
 k-point 32 :   0.4167 0.2500 0.4167  plane waves:     280
 k-point 33 :  -0.4167 0.2500 0.4167  plane waves:     287
 k-point 34 :  -0.2500 0.2500 0.4167  plane waves:     285
 k-point 35 :   0.4167 0.4167 0.4167  plane waves:     280
 k-point 36 :  -0.4167 0.4167 0.4167  plane waves:     282

 maximum and minimum number of plane-waves per node :       294      278

 maximum number of plane-waves:       294
 maximum index in each direction:
   IXMAX=    4   IYMAX=    3   IZMAX=    5
   IXMIN=   -4   IYMIN=   -4   IZMIN=   -6

 WARNING: aliasing errors must be expected set NGX to  18 to avoid them
 NGY is ok and might be reduce to  16
 NGZ is ok and might be reduce to  24
 aliasing errors are usually negligible using standard VASP settings
 and one can safely disregard these warnings

 serial   3D FFT for wavefunctions
 parallel 3D FFT for charge:
    minimum data exchange during FFTs selected (reduces bandwidth)

 Broyden mixing: mesh for mixing (old mesh)
   NGX =  7   NGY =  7   NGZ = 11
  (NGX  = 32   NGY  = 32   NGZ  = 48)
  gives a total of    539 points

 initial charge density was supplied:
 charge density of overlapping atoms calculated
 number of electron       8.0000000 magnetization
 keeping initial charge density in first step

 Maximum index for augmentation-charges         3813 (set IRDMAX)

 First call to EWALD:  gamma=   0.752
 Maximum number of real-space cells 3x 3x 2
 Maximum number of reciprocal cells 3x 3x 4

 FEWALD executed in parallel

----------------------------------------- Iteration    1(   1)  ---------------------------------------

 eigenvalue-minimisations  :   632
 total energy-change (2. order) : 0.1394374E+02  (-0.4054067E+03)
 number of electron       8.0000000 magnetization
 augmentation part        8.0000000 magnetization

 Free energy of the ion-electron system (eV)
  alpha Z        PSCENC =        10.28116797
  Ewald energy   TEWEN  =      -355.67318294
  -Hartree energ DENC   =        -0.47103250
  -exchange      EXHF   =         0.00000000
  -V(xc)+E(xc)   XCENC  =       -12.73799181
  PAW double counting   =       176.24759923     -141.06103558
  entropy T*S    EENTRO =        -0.00265963
  eigenvalues    EBANDS =       131.22894990
  atomic energy  EATOM  =       206.13192747
  Solvation  Ediel_sol  =         0.00000000
  free energy    TOTEN  =        13.94374212 eV

  energy without entropy =       13.94640175  energy(sigma->0) =       13.94507193

[...]

 eigenvalue-minimisations  :   880
 total energy-change (2. order) :-0.1448700E+02  (-0.1371123E+02)
 number of electron       8.0000000 magnetization
 augmentation part        8.0000000 magnetization

[...]

 Broyden mixing:
  rms(total) = 0.16894E+01    rms(broyden)= 0.16894E+01
  rms(prec ) = 0.17575E+01
  weight for this iteration     100.00

[...]

 eigenvalues of (default mixing * dielectric matrix)
  average eigenvalue GAMMA=   2.2984
  2.2984

[...]

 average (electrostatic) potential at core
  the test charge radii are     0.9892
  (the norm of the test charge is              1.0000)
       1 -65.9504       2 -65.9504

 E-fermi :  24.0968     XC(G=0): -14.7313     alpha+bet :-36.6259

 k-point     1 :       0.0833    0.0833    0.0833
  band No.  band energies     occupation
      1       1.6892      2.00000
      2      11.0969      2.00000
      3      15.4017      2.00000
      4      30.8232      0.00000
      5      32.6557      0.00000
      6      38.8031      0.00000
      7      39.0007      0.00000
      8      39.8379      0.00000

[...]

 soft charge-density along one line, spin component           1
         0         1         2         3         4         5         6         7         8         9
 total charge-density along one line

------------------------ aborting loop because EDIFF is reached ----------------------------------------

  FORCE on cell =-STRESS in cart. coord.  units (eV):
  Direction    XX          YY          ZZ          XY          YZ          ZX
  Alpha Z    10.28117    10.28117    10.28117
  Ewald    -118.63894  -118.63894  -118.39554    -0.00000     0.00000    -0.00000
  Hartree     0.47892     0.47892     0.51497    -0.00000    -0.00000    -0.00000
  E(xc)     -33.18986   -33.18986   -33.21430     0.00000     0.00000     0.00000
  Local      -3.49066    -3.49066    -4.18822    -0.00000    -0.00000    -0.00000
  n-local    88.43198    99.51839    94.18462    -3.71662     1.05579    -1.21207
  augment   -12.23456   -12.23456   -12.38236     0.00000    -0.00000    -0.00000
  Kinetic   117.44512    70.59786    96.89124    13.88703    -0.32651    -0.66537
  Fock        0.00000     0.00000     0.00000     0.00000     0.00000     0.00000
  Total      31.20273    31.20273    33.69158     0.00000    -0.00000    -0.00000
  in kB    3817.07902  3817.07902  4121.54378     0.00000    -0.00000    -0.00000

 VOLUME and BASIS-vectors are now :
  energy-cutoff  :      450.00
  volume of cell :       13.10
      direct lattice vectors                 reciprocal lattice vectors
     2.100000000  0.000000000  0.000000000     0.476190476  0.274928700  0.000000000
    -1.050000000  1.818653348  0.000000000     0.000000000  0.549857399  0.000000000
     0.000000000  0.000000000  3.429279000     0.000000000  0.000000000  0.291606486

[...]

 FORCES acting on ions
    electron-ion (+dipol)            ewald-force                    non-local-force                 convergence-correction
   -.581E-08 0.335E-08 -.128E-13   -.142E-12 0.116E-12 -.672E-14   0.173E-17 -.347E-17 0.000E+00   0.711E-11 -.411E-11 0.262E-15
   0.231E-07 -.133E-07 -.121E-12   0.146E-12 -.116E-12 0.672E-14   0.173E-17 0.694E-17 0.000E+00   -.688E-11 0.397E-11 -.265E-15
   0.173E-07 -.997E-08 -.134E-12   0.418E-14 0.289E-15 0.000E+00   0.347E-17 0.347E-17 0.000E+00   0.234E-12 -.135E-12 -.312E-17

 POSITION                                       TOTAL-FORCE (eV/Angst)
      0.00000      0.00000      0.00000         0.000000     -0.000000      0.000000
     -0.00000      1.21244      1.71464        -0.000000      0.000000      0.000000
    total drift:                                0.000000     -0.000000     -0.000000

  FREE ENERGIE OF THE ION-ELECTRON SYSTEM (eV)
  free  energy   TOTEN  =        -0.28638070 eV

  energy  without entropy=       -0.28468703  energy(sigma->0) =       -0.28553387

[...]

 d Force = 0.0000000E+00[ 0.000E+00, 0.000E+00]  d Energy =-0.2518835E-01 0.252E-01
 d Force = 0.0000000E+00[ 0.000E+00, 0.000E+00]  d Ewald  =-0.1793973E+00 0.179E+00

 Steepest descent step on ions:
 trial-energy change:    0.025188  1 .order    0.032271   -0.099611    0.164153
  (g-gl).g = 0.996E-01      g.g   = 0.996E-01  gl.gl    = 0.000E+00
 g(Force)  = 0.298E-50   g(Stress)= 0.996E-01 ortho     = 0.000E+00
 gamma     =   0.00000
 trial     =   1.00000
 opt step  =   0.41682  (harmonic =   0.37765) maximal distance =0.00000000
 next E    =    -0.307653   (d E  =  -0.02127)

 FEWALD executed in parallel

[...]

 eigenvalue-minimisations  :   760
 total energy-change (2. order) : 0.2384240E-02  (-0.5467398E-03)
 number of electron       8.0000000 magnetization
 augmentation part       -0.5034595 magnetization

 Broyden mixing:
  rms(total) = 0.27438E-02    rms(broyden)= 0.27436E-02
  rms(prec ) = 0.36636E-02
  weight for this iteration     100.00

 eigenvalues of (default mixing * dielectric matrix)
  average eigenvalue GAMMA=   1.6082
  1.1289  2.0874

[...]

----------------------------------------- Iteration    3(   4)  ---------------------------------------

 eigenvalue-minimisations  :   632
 total energy-change (2. order) :-0.9643521E-05  (-0.9882540E-05)
 number of electron       8.0000000 magnetization
 augmentation part       -0.5034595 magnetization

 Free energy of the ion-electron system (eV)
  alpha Z        PSCENC =        10.28116797
  Ewald energy   TEWEN  =      -355.64532551
  -Hartree energ DENC   =        -1.47142805
  -exchange      EXHF   =         0.00000000
  -V(xc)+E(xc)   XCENC  =       -11.89152817
  PAW double counting   =      5301.69169037    -5267.42531396
  entropy T*S    EENTRO =        -0.00312943
  eigenvalues    EBANDS =       118.02987068
  atomic energy  EATOM  =       206.13192747
  Solvation  Ediel_sol  =         0.00000000
  free energy    TOTEN  =        -0.30206863 eV

  energy without entropy =       -0.29893919  energy(sigma->0) =       -0.30050391

 average (electrostatic) potential at core
  the test charge radii are     0.9892
  (the norm of the test charge is              1.0000)
       1 -65.9476       2 -65.9476

 E-fermi :  23.9577     XC(G=0): -14.7310     alpha+bet :-36.6259

[...]

 k-point    36 :      -0.4167    0.4167    0.4167
  band No.  band energies     occupation
      1       9.9090      2.00000
      2      11.6028      2.00000
      3      17.0268      2.00000
      4      18.6652      2.00000
      5      28.5470      0.00000
      6      31.3043      0.00000
      7      33.5283      0.00000
      8      34.8687      0.00000

 soft charge-density along one line, spin component           1
         0         1         2         3         4         5         6         7         8         9
 total charge-density along one line

------------------------ aborting loop because EDIFF is reached ----------------------------------------

  FORCE on cell =-STRESS in cart. coord.  units (eV):
  Direction    XX          YY          ZZ          XY          YZ          ZX
  Alpha Z    10.28117    10.28117    10.28117
  Ewald    -117.33033  -117.33033  -120.98479    -0.00000     0.00000     0.00000
  Hartree     0.43296     0.43296     0.60516    -0.00000    -0.00000    -0.00000
  E(xc)     -33.23997   -33.23997   -33.12755    -0.00000     0.00000     0.00000
  Local      -4.66923    -4.66924    -1.92056    -0.00001    -0.00000    -0.00000
  n-local    89.24890   100.35368    92.71724    -3.80166     1.07690    -1.00558
  augment   -12.25493   -12.25492   -12.30772     0.00000    -0.00000     0.00000
  Kinetic   118.17451    69.94508    96.79587    14.31887    -0.21338    -1.63296
  Fock        0.00000     0.00000     0.00000     0.00000     0.00000     0.00000
  Total      32.08076    32.08076    32.05881     0.00000     0.00000     0.00000
  in kB    3924.49022  3924.49022  3921.80470     0.00000     0.00000     0.00000

 VOLUME and BASIS-vectors are now :
  energy-cutoff  :      450.00
  volume of cell :       13.10
      direct lattice vectors                 reciprocal lattice vectors
     2.082627818 -0.000000000 -0.000000000     0.480162606  0.277222010 -0.000000000
    -1.041313909  1.803608597 -0.000000000     0.000000000  0.554444019  0.000000000
     0.000000000 -0.000000000  3.486728081     0.000000000  0.000000000  0.286801832

  length of vectors
     2.082627818  2.082627818  3.486728081     0.554444019  0.554444019  0.286801832

 FORCES acting on ions
    electron-ion (+dipol)            ewald-force                    non-local-force                 convergence-correction
   -.552E-08 0.319E-08 -.158E-13   -.132E-12 0.121E-12 -.704E-14   0.281E-20 0.278E-16 0.000E+00   -.433E-08 0.250E-08 -.182E-15
   0.156E-07 -.899E-08 -.125E-12   0.133E-12 -.123E-12 0.704E-14   0.694E-17 -.243E-16 0.000E+00   0.434E-08 -.250E-08 -.224E-17
   0.101E-07 -.581E-08 -.140E-12   0.695E-15 -.223E-14 -.523E-17   0.694E-17 0.347E-17 0.000E+00   0.860E-11 -.496E-11 -.184E-15

 POSITION                                       TOTAL-FORCE (eV/Angst)
      0.00000     -0.00000      0.00000         0.000000      0.000000      0.000000
     -0.00000      1.20241      1.74336        -0.000000     -0.000000     -0.000000
    total drift:                                0.000000     -0.000000     -0.000000

  FREE ENERGIE OF THE ION-ELECTRON SYSTEM (eV)
  free  energy   TOTEN  =        -0.30206863 eV

  energy  without entropy=       -0.29893919  energy(sigma->0) =       -0.30050391

 d Force = 0.0000000E+00[ 0.000E+00, 0.000E+00]  d Energy = 0.4087627E-01-0.409E-01
 d Force = 0.0000000E+00[ 0.000E+00, 0.000E+00]  d Ewald  = 0.1515398E+00-0.152E+00

 reached required accuracy - stopping structural energy minimisation
 writing wavefunctions