 vasp.5.4.1 24Jun15 (build Jul 19 2016 16:50:41) complex

 executed on           IFC91_ompi date 2019.10.10  11:10:02

 INCAR:
 POTCAR:    PAW_PBE Si 05Jan2001
 POTCAR:    PAW_PBE Si 05Jan2001
   VRHFIN = Si: s2p2

   TITEL  = PAW_PBE Si 05Jan2001
   POMASS =   28.085; ZVAL   =    4.000    mass and valenz
   ENMAX  =  245.345; ENMIN  =  184.009 eV

  PAW_PBE Si 05Jan2001                  :

 POSCAR: Si HCP
  positions in direct lattice
 exchange correlation table for  LEXCH =        8
   RHO(1)=    0.500       N(1)  =     2000
   RHO(2)=  100.500       N(2)  =     4000

 ion  position               nearest neighbor table
   1  0.000  0.000  0.000-   2 2.20   2 2.20   2 2.20   2 2.20   2 2.20   2 2.20   2 3.11   2 3.11
                             2 3.11   2 3.11   2 3.11   2 3.11
   2  0.333  0.667  0.500-   1 2.20   1 2.20   1 2.20   1 2.20   1 2.20   1 2.20   1 3.11   1 3.11
                             1 3.11   1 3.11   1 3.11   1 3.11

  LATTYP: Found a hexagonal cell.
 ALAT       =     2.2000000000
 C/A-ratio  =     1.6329900000

  Lattice vectors:

 A1 = (   2.2000000000,   0.0000000000,   0.0000000000)
 A2 = (  -1.1000000000,   1.9052558883,   0.0000000000)
 A3 = (   0.0000000000,   0.0000000000,   3.5925780000)

Analysis of symmetry for initial positions (statically):
 Subroutine PRICEL returns:
 Original cell was already a primitive cell.

 Routine SETGRP: Setting up the symmetry group for a
 hexagonal supercell.

 Subroutine GETGRP returns: Found 24 space group operations
 (whereof 12 operations were pure point group operations)
 out of a pool of 24 trial point group operations.

The static configuration has the point symmetry D_3h.
 The point group associated with its full space group is D_6h.

Analysis of symmetry for dynamics (positions and initial velocities):
 Subroutine PRICEL returns:
 Original cell was already a primitive cell.

 Routine SETGRP: Setting up the symmetry group for a
 hexagonal supercell.

 Subroutine GETGRP returns: Found 24 space group operations
 (whereof 12 operations were pure point group operations)
 out of a pool of 24 trial point group operations.

The dynamic configuration has the point symmetry D_3h.
 The point group associated with its full space group is D_6h.

 Subroutine INISYM returns: Found 24 space group operations
 (whereof 12 operations are pure point group operations),
 and found     1 'primitive' translations

 KPOINTS: K-Points

Automatic generation of k-mesh.
Space group operators:
 irot       det(A)        alpha          n_x          n_y          n_z        tau_x        tau_y        tau_z
    1     1.000000     0.000000     1.000000     0.000000     0.000000     0.000000     0.000000     0.000000
    2    -1.000000    60.000000     0.000000     0.000000    -1.000000     0.000000     0.000000     0.000000
    3     1.000000   120.000000     0.000000     0.000000    -1.000000     0.000000     0.000000     0.000000
    4    -1.000000   180.000000     0.000000     0.000000     1.000000     0.000000     0.000000     0.000000
    5     1.000000   120.000000     0.000000     0.000000     1.000000     0.000000     0.000000     0.000000
    6    -1.000000    60.000000     0.000000     0.000000     1.000000     0.000000     0.000000     0.000000
    7    -1.000000   180.000000     1.000000     0.000000     0.000000     0.000000     0.000000     0.000000
    8     1.000000   180.000000     0.866025    -0.500000     0.000000     0.000000     0.000000     0.000000
    9    -1.000000   180.000000     0.500000    -0.866025     0.000000     0.000000     0.000000     0.000000
   10     1.000000   180.000000     0.000000     1.000000     0.000000     0.000000     0.000000     0.000000
   11    -1.000000   180.000000    -0.500000    -0.866025     0.000000     0.000000     0.000000     0.000000
   12     1.000000   180.000000     0.866025     0.500000     0.000000     0.000000     0.000000     0.000000
   13    -1.000000     0.000000     1.000000     0.000000     0.000000     0.333333     0.666667     0.500000
   14     1.000000    60.000000     0.000000     0.000000    -1.000000     0.333333     0.666667     0.500000
   15    -1.000000   120.000000     0.000000     0.000000    -1.000000     0.333333     0.666667     0.500000
   16     1.000000   180.000000     0.000000     0.000000     1.000000     0.333333     0.666667     0.500000
   17    -1.000000   120.000000     0.000000     0.000000     1.000000     0.333333     0.666667     0.500000
   18     1.000000    60.000000     0.000000     0.000000     1.000000     0.333333     0.666667     0.500000
   19     1.000000   180.000000     1.000000     0.000000     0.000000     0.333333     0.666667     0.500000
   20    -1.000000   180.000000     0.866025    -0.500000     0.000000     0.333333     0.666667     0.500000
   21     1.000000   180.000000     0.500000    -0.866025     0.000000     0.333333     0.666667     0.500000
   22    -1.000000   180.000000     0.000000     1.000000     0.000000     0.333333     0.666667     0.500000
   23     1.000000   180.000000    -0.500000    -0.866025     0.000000     0.333333     0.666667     0.500000
   24    -1.000000   180.000000     0.866025     0.500000     0.000000     0.333333     0.666667     0.500000

 Subroutine IBZKPT returns following result:

 Found     36 irreducible k-points:

 Following reciprocal coordinates:
            Coordinates               Weight
  0.083333  0.083333  0.083333     96.000000
  0.250000  0.083333  0.083333    192.000000
  0.416667  0.083333  0.083333    192.000000
 -0.416667  0.083333  0.083333    192.000000
 -0.250000  0.083333  0.083333    192.000000
 -0.083333  0.083333  0.083333     96.000000
  0.250000  0.250000  0.083333     96.000000
  0.416667  0.250000  0.083333    192.000000
 -0.416667  0.250000  0.083333    192.000000
 -0.250000  0.250000  0.083333     96.000000
  0.416667  0.416667  0.083333     96.000000
 -0.416667  0.416667  0.083333     96.000000
  0.083333  0.083333  0.250000     96.000000
  0.250000  0.083333  0.250000    192.000000
  0.416667  0.083333  0.250000    192.000000
 -0.416667  0.083333  0.250000    192.000000
 -0.250000  0.083333  0.250000    192.000000
 -0.083333  0.083333  0.250000     96.000000
  0.250000  0.250000  0.250000     96.000000
  0.416667  0.250000  0.250000    192.000000
 -0.416667  0.250000  0.250000    192.000000
 -0.250000  0.250000  0.250000     96.000000
  0.416667  0.416667  0.250000     96.000000
 -0.416667  0.416667  0.250000     96.000000
  0.083333  0.083333  0.416667     96.000000
  0.250000  0.083333  0.416667    192.000000
  0.416667  0.083333  0.416667    192.000000
 -0.416667  0.083333  0.416667    192.000000
 -0.250000  0.083333  0.416667    192.000000
 -0.083333  0.083333  0.416667     96.000000
  0.250000  0.250000  0.416667     96.000000
  0.416667  0.250000  0.416667    192.000000
 -0.416667  0.250000  0.416667    192.000000
 -0.250000  0.250000  0.416667     96.000000
  0.416667  0.416667  0.416667     96.000000
 -0.416667  0.416667  0.416667     96.000000

 Following cartesian coordinates:
            Coordinates               Weight
  0.083333  0.144338  0.051031     96.000000
  0.250000  0.240563  0.051031    192.000000
  0.416667  0.336788  0.051031    192.000000
 -0.416667 -0.144338  0.051031    192.000000
 -0.250000 -0.048113  0.051031    192.000000
 -0.083333  0.048113  0.051031     96.000000
  0.250000  0.433013  0.051031     96.000000
  0.416667  0.529238  0.051031    192.000000
 -0.416667  0.048113  0.051031    192.000000
 -0.250000  0.144338  0.051031     96.000000
  0.416667  0.721688  0.051031     96.000000
 -0.416667  0.240563  0.051031     96.000000
  0.083333  0.144338  0.153093     96.000000
  0.250000  0.240563  0.153093    192.000000
  0.416667  0.336788  0.153093    192.000000
 -0.416667 -0.144338  0.153093    192.000000
 -0.250000 -0.048113  0.153093    192.000000
 -0.083333  0.048113  0.153093     96.000000
  0.250000  0.433013  0.153093     96.000000
  0.416667  0.529238  0.153093    192.000000
 -0.416667  0.048113  0.153093    192.000000
 -0.250000  0.144338  0.153093     96.000000
  0.416667  0.721688  0.153093     96.000000
 -0.416667  0.240563  0.153093     96.000000
  0.083333  0.144338  0.255156     96.000000
  0.250000  0.240563  0.255156    192.000000
  0.416667  0.336788  0.255156    192.000000
 -0.416667 -0.144338  0.255156    192.000000
 -0.250000 -0.048113  0.255156    192.000000
 -0.083333  0.048113  0.255156     96.000000
  0.250000  0.433013  0.255156     96.000000
  0.416667  0.529238  0.255156    192.000000
 -0.416667  0.048113  0.255156    192.000000
 -0.250000  0.144338  0.255156     96.000000
  0.416667  0.721688  0.255156     96.000000
 -0.416667  0.240563  0.255156     96.000000

 I would recommend the setting:
   dimension x,y,z NGX =    15 NGY =   15 NGZ =   25
 SYSTEM =  Si beta-tin
 POSCAR =  Si HCP

 Startparameter for this run:
   NWRITE =      2    write-flag & timer
   PREC   = accura    normal or accurate (medium, high low for compatibility)
   ISTART =      0    job   : 0-new  1-cont  2-samecut
   ICHARG =      2    charge: 1-file 2-atom 10-const
   ISPIN  =      1    spin polarized calculation?
   LNONCOLLINEAR =      F non collinear calculations
   LSORBIT =      F    spin-orbit coupling
   INIWAV =      1    electr: 0-lowe 1-rand  2-diag
   LASPH  =      F    aspherical Exc in radial PAW
   METAGGA=      F    non-selfconsistent MetaGGA calc.

 Electronic Relaxation 1
   ENCUT  =  450.0 eV  33.07 Ry    5.75 a.u.   3.81  3.81  6.21*2*pi/ulx,y,z
   ENINI  =  450.0     initial cutoff
   ENAUG  =  322.1 eV  augmentation charge cutoff
   NELM   =     60;   NELMIN=  2; NELMDL= -5     # of ELM steps
   EDIFF  = 0.1E-04   stopping-criterion for ELM
   LREAL  =      F    real-space projection
   NLSPLINE    = F    spline interpolate recip. space projectors
   LCOMPAT=      F    compatible to vasp.4.4
   GGA_COMPAT  = T    GGA compatible to vasp.4.4-vasp.4.6
   LMAXPAW     = -100 max onsite density
   LMAXMIX     =    2 max onsite mixed and CHGCAR
   VOSKOWN=      0    Vosko Wilk Nusair interpolation
   ROPT   =    0.00000
 Ionic relaxation
   EDIFFG = -.1E-01   stopping-criterion for IOM
   NSW    =    100    number of steps for IOM
   NBLOCK =      1;   KBLOCK =    100    inner block; outer block
   IBRION =      2    ionic relax: 0-MD 1-quasi-New 2-CG
   NFREE  =      1    steps in history (QN), initial steepest desc. (CG)
   ISIF   =      4    stress and relaxation
   IWAVPR =     11    prediction:  0-non 1-charg 2-wave 3-comb
   ISYM   =      2    0-nonsym 1-usesym 2-fastsym
   LCORR  =      T    Harris-Foulkes like correction to forces

   POTIM  = 0.5000    time-step for ionic-motion
   TEIN   =    0.0    initial temperature
   TEBEG  =    0.0;   TEEND  =   0.0 temperature during run
   SMASS  =  -3.00    Nose mass-parameter (am)
   estimated Nose-frequenzy (Omega)   =  0.10E-29 period in steps =****** mass=  -0.111E-27a.u.
   SCALEE = 1.0000    scale energy and forces
   NPACO  =    256;   APACO  = 16.0  distance and # of slots for P.C.
   PSTRESS=    0.0 pullay stress

  Mass of Ions in am
   POMASS =  28.09
  Ionic Valenz
   ZVAL   =   4.00
  Atomic Wigner-Seitz radii
  virtual crystal weights
[...]
   0.25000000  0.24056261  0.25515568       0.037
   0.41666667  0.33678766  0.25515568       0.037
  -0.41666667 -0.14433757  0.25515568       0.037
  -0.25000000 -0.04811252  0.25515568       0.037
  -0.08333333  0.04811252  0.25515568       0.019
   0.25000000  0.43301270  0.25515568       0.019
   0.41666667  0.52923775  0.25515568       0.037
  -0.41666667  0.04811252  0.25515568       0.037
  -0.25000000  0.14433757  0.25515568       0.019
   0.41666667  0.72168784  0.25515568       0.019
  -0.41666667  0.24056261  0.25515568       0.019

 k-points in reciprocal lattice and weights: K-Points
   0.08333333  0.08333333  0.08333333       0.019
   0.25000000  0.08333333  0.08333333       0.037
   0.41666667  0.08333333  0.08333333       0.037
  -0.41666667  0.08333333  0.08333333       0.037
  -0.25000000  0.08333333  0.08333333       0.037
  -0.08333333  0.08333333  0.08333333       0.019
   0.25000000  0.25000000  0.08333333       0.019
   0.41666667  0.25000000  0.08333333       0.037
  -0.41666667  0.25000000  0.08333333       0.037
  -0.25000000  0.25000000  0.08333333       0.019
   0.41666667  0.41666667  0.08333333       0.019
  -0.41666667  0.41666667  0.08333333       0.019
   0.08333333  0.08333333  0.25000000       0.019
   0.25000000  0.08333333  0.25000000       0.037
   0.41666667  0.08333333  0.25000000       0.037
  -0.41666667  0.08333333  0.25000000       0.037
  -0.25000000  0.08333333  0.25000000       0.037
  -0.08333333  0.08333333  0.25000000       0.019
   0.25000000  0.25000000  0.25000000       0.019
   0.41666667  0.25000000  0.25000000       0.037
  -0.41666667  0.25000000  0.25000000       0.037
  -0.25000000  0.25000000  0.25000000       0.019
   0.41666667  0.41666667  0.25000000       0.019
  -0.41666667  0.41666667  0.25000000       0.019
   0.08333333  0.08333333  0.41666667       0.019
   0.25000000  0.08333333  0.41666667       0.037
   0.41666667  0.08333333  0.41666667       0.037
  -0.41666667  0.08333333  0.41666667       0.037
  -0.25000000  0.08333333  0.41666667       0.037
  -0.08333333  0.08333333  0.41666667       0.019
   0.25000000  0.25000000  0.41666667       0.019
   0.41666667  0.25000000  0.41666667       0.037
  -0.41666667  0.25000000  0.41666667       0.037
  -0.25000000  0.25000000  0.41666667       0.019
   0.41666667  0.41666667  0.41666667       0.019
  -0.41666667  0.41666667  0.41666667       0.019

 position of ions in fractional coordinates (direct lattice)
   0.00000000  0.00000000  0.00000000
   0.33333333  0.66666667  0.50000000

 position of ions in cartesian coordinates  (Angst):
   0.00000000  0.00000000  0.00000000
  -0.00000000  1.27017059  1.79628900

 k-point  1 :   0.0833 0.0833 0.0833  plane waves:     325
 k-point  2 :   0.2500 0.0833 0.0833  plane waves:     324
 k-point  3 :   0.4167 0.0833 0.0833  plane waves:     331
 k-point  4 :  -0.4167 0.0833 0.0833  plane waves:     325
 k-point  5 :  -0.2500 0.0833 0.0833  plane waves:     329
 k-point  6 :  -0.0833 0.0833 0.0833  plane waves:     319
 k-point  7 :   0.2500 0.2500 0.0833  plane waves:     326
 k-point  8 :   0.4167 0.2500 0.0833  plane waves:     327
 k-point  9 :  -0.4167 0.2500 0.0833  plane waves:     321
 k-point 10 :  -0.2500 0.2500 0.0833  plane waves:     329
 k-point 11 :   0.4167 0.4167 0.0833  plane waves:     325
 k-point 12 :  -0.4167 0.4167 0.0833  plane waves:     330
 k-point 13 :   0.0833 0.0833 0.2500  plane waves:     325
 k-point 14 :   0.2500 0.0833 0.2500  plane waves:     326
 k-point 15 :   0.4167 0.0833 0.2500  plane waves:     327
 k-point 16 :  -0.4167 0.0833 0.2500  plane waves:     326
 k-point 17 :  -0.2500 0.0833 0.2500  plane waves:     323
 k-point 18 :  -0.0833 0.0833 0.2500  plane waves:     326
 k-point 19 :   0.2500 0.2500 0.2500  plane waves:     327
 k-point 20 :   0.4167 0.2500 0.2500  plane waves:     330
 k-point 21 :  -0.4167 0.2500 0.2500  plane waves:     324
 k-point 22 :  -0.2500 0.2500 0.2500  plane waves:     324
 k-point 23 :   0.4167 0.4167 0.2500  plane waves:     325
 k-point 24 :  -0.4167 0.4167 0.2500  plane waves:     324
 k-point 25 :   0.0833 0.0833 0.4167  plane waves:     323
 k-point 26 :   0.2500 0.0833 0.4167  plane waves:     323
 k-point 27 :   0.4167 0.0833 0.4167  plane waves:     330
 k-point 28 :  -0.4167 0.0833 0.4167  plane waves:     328
 k-point 29 :  -0.2500 0.0833 0.4167  plane waves:     322
 k-point 30 :  -0.0833 0.0833 0.4167  plane waves:     326
 k-point 31 :   0.2500 0.2500 0.4167  plane waves:     329
 k-point 32 :   0.4167 0.2500 0.4167  plane waves:     334
 k-point 33 :  -0.4167 0.2500 0.4167  plane waves:     325
 k-point 34 :  -0.2500 0.2500 0.4167  plane waves:     324
 k-point 35 :   0.4167 0.4167 0.4167  plane waves:     335
 k-point 36 :  -0.4167 0.4167 0.4167  plane waves:     325

 maximum and minimum number of plane-waves per node :       335      319

 maximum number of plane-waves:       335
 maximum index in each direction:
   IXMAX=    4   IYMAX=    3   IZMAX=    6
   IXMIN=   -4   IYMIN=   -4   IZMIN=   -6

 WARNING: aliasing errors must be expected set NGX to  18 to avoid them
 NGY is ok and might be reduce to  16
 NGZ is ok and might be reduce to  26
 aliasing errors are usually negligible using standard VASP settings
 and one can safely disregard these warnings

 serial   3D FFT for wavefunctions
 parallel 3D FFT for charge:
    minimum data exchange during FFTs selected (reduces bandwidth)

 Broyden mixing: mesh for mixing (old mesh)
   NGX =  7   NGY =  7   NGZ = 13
  (NGX  = 32   NGY  = 32   NGZ  = 56)
  gives a total of    637 points

 initial charge density was supplied:
 charge density of overlapping atoms calculated
 number of electron       8.0000000 magnetization
 keeping initial charge density in first step

 Maximum index for augmentation-charges         3866 (set IRDMAX)

 First call to EWALD:  gamma=   0.718
 Maximum number of real-space cells 3x 3x 2
 Maximum number of reciprocal cells 3x 3x 4

 FEWALD executed in parallel

----------------------------------------- Iteration    1(   1)  ---------------------------------------

 eigenvalue-minimisations  :   624
 total energy-change (2. order) : 0.9617099E+01  (-0.3845177E+03)
 number of electron       8.0000000 magnetization
 augmentation part        8.0000000 magnetization

 Free energy of the ion-electron system (eV)
  alpha Z        PSCENC =         8.94195122
  Ewald energy   TEWEN  =      -339.50622008
  -Hartree energ DENC   =        -0.37485983
  -exchange      EXHF   =         0.00000000
  -V(xc)+E(xc)   XCENC  =       -13.63929453
  PAW double counting   =       176.24759923     -141.06103558
  entropy T*S    EENTRO =        -0.00295049
  eigenvalues    EBANDS =       112.87998182
  atomic energy  EATOM  =       206.13192747
  Solvation  Ediel_sol  =         0.00000000
  free energy    TOTEN  =         9.61709924 eV

  energy without entropy =        9.62004973  energy(sigma->0) =        9.61857449

[...]

 eigenvalue-minimisations  :   872
 total energy-change (2. order) :-0.1381017E+02  (-0.1321498E+02)
 number of electron       8.0000000 magnetization
 augmentation part        8.0000000 magnetization

[...]

 Broyden mixing:
  rms(total) = 0.13139E+01    rms(broyden)= 0.13139E+01
  rms(prec ) = 0.13722E+01
  weight for this iteration     100.00

[...]

 eigenvalues of (default mixing * dielectric matrix)
  average eigenvalue GAMMA=   2.2987
  2.2987

[...]

 average (electrostatic) potential at core
  the test charge radii are     0.9892
  (the norm of the test charge is              1.0000)
       1 -68.8595       2 -68.8595

 E-fermi :  21.1020     XC(G=0): -14.0528     alpha+bet :-31.8551

 k-point     1 :       0.0833    0.0833    0.0833
  band No.  band energies     occupation
      1       0.3587      2.00000
      2       9.1165      2.00000
      3      12.9629      2.00000
      4      27.5059      0.00000
      5      28.7424      0.00000
      6      34.9695      0.00000
      7      35.1040      0.00000
      8      35.6273      0.00000

[...]

 soft charge-density along one line, spin component           1
         0         1         2         3         4         5         6         7         8         9
 total charge-density along one line

------------------------ aborting loop because EDIFF is reached ----------------------------------------

  FORCE on cell =-STRESS in cart. coord.  units (eV):
  Direction    XX          YY          ZZ          XY          YZ          ZX
  Alpha Z     8.94195     8.94195     8.94195
  Ewald    -113.24626  -113.24626  -113.01393    -0.00000     0.00000     0.00000
  Hartree     0.34322     0.34322     0.37800    -0.00000    -0.00000    -0.00000
  E(xc)     -31.39346   -31.39346   -31.41777    -0.00000     0.00000     0.00000
  Local      -3.43116    -3.43116    -3.87865    -0.00001    -0.00000    -0.00000
  n-local    82.66940    92.24539    87.93331    -2.96123     0.68784    -1.05119
  augment   -11.96322   -11.96322   -12.05671     0.00001    -0.00000     0.00000
  Kinetic   107.16186    63.65544    86.86357    13.63109     0.00516    -0.16846
  Fock        0.00000     0.00000     0.00000     0.00000     0.00000     0.00000
  Total      22.11711    22.11711    23.74976     0.00000     0.00000     0.00000
  in kB    2353.18879  2353.18879  2526.89766     0.00000     0.00000     0.00000

 VOLUME and BASIS-vectors are now :
  energy-cutoff  :      450.00
  volume of cell :       15.06
      direct lattice vectors                 reciprocal lattice vectors
     2.200000000  0.000000000  0.000000000     0.454545455  0.262431941  0.000000000
    -1.100000000  1.905255888  0.000000000     0.000000000  0.524863881  0.000000000
     0.000000000  0.000000000  3.592578000     0.000000000  0.000000000  0.278351646

[...]

 FORCES acting on ions
    electron-ion (+dipol)            ewald-force                    non-local-force                 convergence-correction
   -.390E-08 0.225E-08 0.817E-15   -.137E-12 0.115E-12 -.646E-14   -.173E-17 -.694E-17 0.000E+00   0.136E-09 -.787E-10 -.292E-15
   -.625E-08 0.361E-08 -.943E-13   0.137E-12 -.113E-12 0.646E-14   -.113E-16 0.694E-17 0.000E+00   -.137E-09 0.789E-10 0.245E-15
   -.101E-07 0.586E-08 -.935E-13   0.486E-15 0.195E-14 0.000E+00   -.130E-16 0.000E+00 0.000E+00   -.337E-12 0.195E-12 -.468E-16

 POSITION                                       TOTAL-FORCE (eV/Angst)
      0.00000      0.00000      0.00000        -0.000000      0.000000      0.000000
     -0.00000      1.27017      1.79629         0.000000     -0.000000      0.000000
    total drift:                               -0.000000      0.000000     -0.000000

  FREE ENERGIE OF THE ION-ELECTRON SYSTEM (eV)
  free  energy   TOTEN  =        -4.07443702 eV

  energy  without entropy=       -4.06679365  energy(sigma->0) =       -4.07061534

[...]

 d Force = 0.0000000E+00[ 0.000E+00, 0.000E+00]  d Energy = 0.1762509E-01-0.176E-01
 d Force = 0.0000000E+00[ 0.000E+00, 0.000E+00]  d Ewald  =-0.7028537E-01 0.703E-01

 Steepest descent step on ions:
 trial-energy change:   -0.017625  1 .order   -0.017759   -0.042864    0.007346
  (g-gl).g = 0.429E-01      g.g   = 0.429E-01  gl.gl    = 0.000E+00
 g(Force)  = 0.982E-50   g(Stress)= 0.429E-01 ortho     = 0.000E+00
 gamma     =   0.00000
 trial     =   1.00000
 opt step  =   0.85167  (harmonic =   0.85370) maximal distance =0.00000000
 next E    =    -4.092607   (d E  =  -0.01817)

[...]

 d Force = 0.0000000E+00[ 0.000E+00, 0.000E+00]  d Energy = 0.1386052E-02-0.139E-02
 d Force = 0.0000000E+00[ 0.000E+00, 0.000E+00]  d Ewald  = 0.2034493E-01-0.203E-01

 FEWALD executed in parallel

[...]

 eigenvalue-minimisations  :   808
 total energy-change (2. order) : 0.1234528E-03  (-0.2928360E-04)
 number of electron       8.0000000 magnetization
 augmentation part       -0.4835829 magnetization

 Broyden mixing:
  rms(total) = 0.46638E-03    rms(broyden)= 0.46633E-03
  rms(prec ) = 0.64541E-03
  weight for this iteration     100.00

 eigenvalues of (default mixing * dielectric matrix)
  average eigenvalue GAMMA=   1.6107
  1.1062  2.1151

[...]

----------------------------------------- Iteration    4(   4)  ---------------------------------------

 eigenvalue-minimisations  :   328
 total energy-change (2. order) :-0.6138662E-06  (-0.5529367E-06)
 number of electron       8.0000000 magnetization
 augmentation part       -0.4835829 magnetization

 Free energy of the ion-electron system (eV)
  alpha Z        PSCENC =         8.94195122
  Ewald energy   TEWEN  =      -339.47629377
  -Hartree energ DENC   =        -1.07262409
  -exchange      EXHF   =         0.00000000
  -V(xc)+E(xc)   XCENC  =       -12.97871500
  PAW double counting   =      3525.67264897    -3491.11741052
  entropy T*S    EENTRO =        -0.00235412
  eigenvalues    EBANDS =        99.80607624
  atomic energy  EATOM  =       206.13192747
  Solvation  Ediel_sol  =         0.00000000
  free energy    TOTEN  =        -4.09479359 eV

  energy without entropy =       -4.09243947  energy(sigma->0) =       -4.09361653

 average (electrostatic) potential at core
  the test charge radii are     0.9892
  (the norm of the test charge is              1.0000)
       1 -68.8625       2 -68.8625

 E-fermi :  20.9925     XC(G=0): -14.0523     alpha+bet :-31.8551

[...]

 k-point    36 :      -0.4167    0.4167    0.4167
  band No.  band energies     occupation
      1       7.9685      2.00000
      2       9.5525      2.00000
      3      14.5514      2.00000
      4      16.0861      2.00000
      5      25.4620      0.00000
      6      28.2167      0.00000
      7      29.4446      0.00000
      8      30.7863      0.00000

 soft charge-density along one line, spin component           1
         0         1         2         3         4         5         6         7         8         9
 total charge-density along one line

------------------------ aborting loop because EDIFF is reached ----------------------------------------

  FORCE on cell =-STRESS in cart. coord.  units (eV):
  Direction    XX          YY          ZZ          XY          YZ          ZX
  Alpha Z     8.94195     8.94195     8.94195
  Ewald    -111.92364  -111.92364  -115.62913    -0.00000     0.00000     0.00000
  Hartree     0.31435     0.31435     0.44378    -0.00000    -0.00000    -0.00000
  E(xc)     -31.43299   -31.43299   -31.34603    -0.00000     0.00000     0.00000
  Local      -4.57189    -4.57190    -1.62822    -0.00001    -0.00000    -0.00000
  n-local    83.24234    92.68809    86.50489    -2.98237     0.72011    -0.94253
  augment   -11.94122   -11.94122   -11.95836     0.00001    -0.00000     0.00000
  Kinetic   107.80593    62.67453    87.27456    13.23096    -0.06012    -1.20900
  Fock        0.00000     0.00000     0.00000     0.00000     0.00000     0.00000
  Total      22.59200    22.59200    22.60344     0.00000     0.00000     0.00000
  in kB    2403.71531  2403.71531  2404.93247     0.00000     0.00000     0.00000

 VOLUME and BASIS-vectors are now :
  energy-cutoff  :      450.00
  volume of cell :       15.06
      direct lattice vectors                 reciprocal lattice vectors
     2.180789280 -0.000000000  0.000000000     0.458549576  0.264743721  0.000000000
    -1.090394640  1.888618917 -0.000000000     0.000000000  0.529487442 -0.000000000
    -0.000000000  0.000000000  3.656151307    -0.000000000 -0.000000000  0.273511656

  length of vectors
     2.180789280  2.180789280  3.656151307     0.529487442  0.529487442  0.273511656

 FORCES acting on ions
    electron-ion (+dipol)            ewald-force                    non-local-force                 convergence-correction
   -.285E-08 0.165E-08 -.614E-14   -.109E-12 0.114E-12 -.644E-14   -.243E-16 -.278E-16 0.000E+00   -.255E-09 0.147E-09 -.138E-15
   -.260E-07 0.150E-07 -.995E-13   0.110E-12 -.112E-12 0.643E-14   0.208E-16 0.278E-16 0.000E+00   0.255E-09 -.147E-09 0.115E-15
   -.289E-07 0.167E-07 -.106E-12   0.734E-15 0.224E-14 -.604E-17   -.347E-17 0.363E-27 0.000E+00   -.343E-12 0.198E-12 -.230E-16

 POSITION                                       TOTAL-FORCE (eV/Angst)
     -0.00000      0.00000     -0.00000        -0.000000      0.000000      0.000000
     -0.00000      1.25908      1.82808         0.000000     -0.000000      0.000000
    total drift:                               -0.000000      0.000000     -0.000000

  FREE ENERGIE OF THE ION-ELECTRON SYSTEM (eV)
  free  energy   TOTEN  =        -4.09479359 eV

  energy  without entropy=       -4.09243947  energy(sigma->0) =       -4.09361653

 d Force = 0.0000000E+00[ 0.000E+00, 0.000E+00]  d Energy = 0.1345433E-02-0.135E-02
 d Force = 0.0000000E+00[ 0.000E+00, 0.000E+00]  d Ewald  = 0.2001414E-01-0.200E-01

 reached required accuracy - stopping structural energy minimisation
 writing wavefunctions