 vasp.5.4.1 24Jun15 (build Jul 19 2016 16:50:41) complex

 executed on           IFC91_ompi date 2019.10.17  11:06:00

 INCAR:
 POTCAR:    PAW_PBE Fe 06Sep2000
 POTCAR:    PAW_PBE Fe 06Sep2000
   VRHFIN =Fe:  d7 s1

   TITEL  = PAW_PBE Fe 06Sep2000
   POMASS =   55.847; ZVAL   =    8.000    mass and valenz
   ENMAX  =  267.882; ENMIN  =  200.911 eV

  PAW_PBE Fe 06Sep2000                  :

 POSCAR: Fe BCC
  positions in direct lattice
 exchange correlation table for  LEXCH =        8
   RHO(1)=    0.500       N(1)  =     2000
   RHO(2)=  100.500       N(2)  =     4000

 ion  position               nearest neighbor table
   1  0.000  0.000  0.000-

  LATTYP: Found a body centered cubic cell.
 ALAT       =     2.8500000000

  Lattice vectors:

 A1 = (  -1.4250000000,   1.4250000000,   1.4250000000)
 A2 = (   1.4250000000,  -1.4250000000,   1.4250000000)
 A3 = (   1.4250000000,   1.4250000000,  -1.4250000000)

Analysis of symmetry for initial positions (statically):
 Subroutine PRICEL returns:
 Original cell was already a primitive cell.

 Routine SETGRP: Setting up the symmetry group for a
 body centered cubic supercell.

 Subroutine GETGRP returns: Found 48 space group operations
 (whereof 48 operations were pure point group operations)
 out of a pool of 48 trial point group operations.

The static configuration has the point symmetry O_h .

Analysis of symmetry for dynamics (positions and initial velocities):
 Subroutine PRICEL returns:
 Original cell was already a primitive cell.

[...]

The dynamic configuration has the point symmetry O_h .

Analysis of structural, dynamic, and magnetic symmetry:
 Subroutine PRICEL returns:
 Original cell was already a primitive cell.

 Routine SETGRP: Setting up the symmetry group for a
 body centered cubic supercell.

 Subroutine GETGRP returns: Found 48 space group operations
 (whereof 48 operations were pure point group operations)
 out of a pool of 48 trial point group operations.

The magnetic configuration has the point symmetry O_h .

 Subroutine INISYM returns: Found 48 space group operations
 (whereof 48 operations are pure point group operations),
 and found     1 'primitive' translations

 KPOINTS: K-Points

Automatic generation of k-mesh.
Space group operators:
 irot       det(A)        alpha          n_x          n_y          n_z        tau_x        tau_y        tau_z
    1     1.000000     0.000000     1.000000     0.000000     0.000000     0.000000     0.000000     0.000000
    2    -1.000000     0.000000     1.000000     0.000000     0.000000     0.000000     0.000000     0.000000
    3     1.000000   120.000000    -0.577350    -0.577350    -0.577350     0.000000     0.000000     0.000000
    4    -1.000000   120.000000    -0.577350    -0.577350    -0.577350     0.000000     0.000000     0.000000
    5     1.000000   120.000000     0.577350     0.577350     0.577350     0.000000     0.000000     0.000000
    6    -1.000000   120.000000     0.577350     0.577350     0.577350     0.000000     0.000000     0.000000
    7     1.000000    90.000000     0.000000     0.000000    -1.000000     0.000000     0.000000     0.000000
    8    -1.000000    90.000000     0.000000     0.000000    -1.000000     0.000000     0.000000     0.000000
    9     1.000000   180.000000     0.000000     0.707107     0.707107     0.000000     0.000000     0.000000
   10    -1.000000   180.000000     0.000000     0.707107     0.707107     0.000000     0.000000     0.000000
   11     1.000000    90.000000     0.000000     1.000000     0.000000     0.000000     0.000000     0.000000
   12    -1.000000    90.000000     0.000000     1.000000     0.000000     0.000000     0.000000     0.000000
   13     1.000000   179.999999     0.000000     0.000000     1.000000     0.000000     0.000000     0.000000
   14    -1.000000   179.999999     0.000000     0.000000     1.000000     0.000000     0.000000     0.000000
   15     1.000000   120.000000    -0.577350     0.577350     0.577350     0.000000     0.000000     0.000000
   16    -1.000000   120.000000    -0.577350     0.577350     0.577350     0.000000     0.000000     0.000000
   17     1.000000   120.000000    -0.577350     0.577350    -0.577350     0.000000     0.000000     0.000000
   18    -1.000000   120.000000    -0.577350     0.577350    -0.577350     0.000000     0.000000     0.000000
   19     1.000000    90.000000     0.000000     0.000000     1.000000     0.000000     0.000000     0.000000
   20    -1.000000    90.000000     0.000000     0.000000     1.000000     0.000000     0.000000     0.000000
   21     1.000000    90.000000    -1.000000     0.000000     0.000000     0.000000     0.000000     0.000000
   22    -1.000000    90.000000    -1.000000     0.000000     0.000000     0.000000     0.000000     0.000000
   23     1.000000   180.000000     0.707107     0.000000     0.707107     0.000000     0.000000     0.000000
   24    -1.000000   180.000000     0.707107     0.000000     0.707107     0.000000     0.000000     0.000000
   25     1.000000   120.000000     0.577350    -0.577350     0.577350     0.000000     0.000000     0.000000
   26    -1.000000   120.000000     0.577350    -0.577350     0.577350     0.000000     0.000000     0.000000
   27     1.000000   120.000000    -0.577350    -0.577350     0.577350     0.000000     0.000000     0.000000
   28    -1.000000   120.000000    -0.577350    -0.577350     0.577350     0.000000     0.000000     0.000000
   29     1.000000   180.000000     1.000000     0.000000     0.000000     0.000000     0.000000     0.000000
   30    -1.000000   180.000000     1.000000     0.000000     0.000000     0.000000     0.000000     0.000000
   31     1.000000    90.000000     0.000000    -1.000000     0.000000     0.000000     0.000000     0.000000
   32    -1.000000    90.000000     0.000000    -1.000000     0.000000     0.000000     0.000000     0.000000
   33     1.000000   180.000000     0.707107     0.707107     0.000000     0.000000     0.000000     0.000000
   34    -1.000000   180.000000     0.707107     0.707107     0.000000     0.000000     0.000000     0.000000
   35     1.000000    90.000000     1.000000     0.000000     0.000000     0.000000     0.000000     0.000000
   36    -1.000000    90.000000     1.000000     0.000000     0.000000     0.000000     0.000000     0.000000
   37     1.000000   120.000000     0.577350    -0.577350    -0.577350     0.000000     0.000000     0.000000
   38    -1.000000   120.000000     0.577350    -0.577350    -0.577350     0.000000     0.000000     0.000000
   39     1.000000   180.000000     0.000000     1.000000     0.000000     0.000000     0.000000     0.000000
   40    -1.000000   180.000000     0.000000     1.000000     0.000000     0.000000     0.000000     0.000000
   41     1.000000   120.000000     0.577350     0.577350    -0.577350     0.000000     0.000000     0.000000
   42    -1.000000   120.000000     0.577350     0.577350    -0.577350     0.000000     0.000000     0.000000
   43     1.000000   180.000000     0.000000    -0.707107     0.707107     0.000000     0.000000     0.000000
   44    -1.000000   180.000000     0.000000    -0.707107     0.707107     0.000000     0.000000     0.000000
   45     1.000000   180.000000     0.707107    -0.707107     0.000000     0.000000     0.000000     0.000000
   46    -1.000000   180.000000     0.707107    -0.707107     0.000000     0.000000     0.000000     0.000000
   47     1.000000   180.000000     0.707107     0.000000    -0.707107     0.000000     0.000000     0.000000
   48    -1.000000   180.000000     0.707107     0.000000    -0.707107     0.000000     0.000000     0.000000

 Subroutine IBZKPT returns following result:

 Found     68 irreducible k-points:

 Following reciprocal coordinates:
            Coordinates               Weight
  0.041667  0.041667  0.041667      8.000000
  0.125000  0.041667  0.041667     24.000000
  0.208333  0.041667  0.041667     24.000000
  0.291667  0.041667  0.041667     24.000000
  0.375000  0.041667  0.041667     24.000000
  0.458333  0.041667  0.041667     12.000000
 -0.041667  0.041667  0.041667      6.000000
  0.125000  0.125000  0.041667     24.000000
  0.208333  0.125000  0.041667     48.000000
  0.291667  0.125000  0.041667     48.000000
  0.375000  0.125000  0.041667     48.000000
 -0.125000  0.125000  0.041667     24.000000
  0.208333  0.208333  0.041667     24.000000
  0.291667  0.208333  0.041667     48.000000
  0.375000  0.208333  0.041667     24.000000
 -0.208333  0.208333  0.041667     24.000000
 -0.125000  0.208333  0.041667     24.000000
  0.291667  0.291667  0.041667     24.000000
 -0.291667  0.291667  0.041667     24.000000
 -0.208333  0.291667  0.041667     48.000000
 -0.375000  0.375000  0.041667     24.000000
 -0.291667  0.375000  0.041667     48.000000
 -0.208333  0.375000  0.041667     24.000000
 -0.458333  0.458333  0.041667     24.000000
 -0.375000  0.458333  0.041667     48.000000
 -0.291667  0.458333  0.041667     48.000000
 -0.458333 -0.458333  0.041667     24.000000
 -0.375000 -0.458333  0.041667     48.000000
 -0.291667 -0.458333  0.041667     24.000000
 -0.375000 -0.375000  0.041667     24.000000
  0.125000  0.125000  0.125000      8.000000
  0.208333  0.125000  0.125000     24.000000
  0.291667  0.125000  0.125000     24.000000
  0.375000  0.125000  0.125000     12.000000
 -0.125000  0.125000  0.125000      6.000000
  0.208333  0.208333  0.125000     24.000000
  0.291667  0.208333  0.125000     48.000000
 -0.208333  0.208333  0.125000     24.000000
  0.291667  0.291667  0.125000      8.000000
 -0.291667  0.291667  0.125000     24.000000
 -0.208333  0.291667  0.125000     24.000000
 -0.375000  0.375000  0.125000     24.000000
 -0.291667  0.375000  0.125000     48.000000
 -0.458333  0.458333  0.125000     24.000000
 -0.375000  0.458333  0.125000     48.000000
 -0.291667  0.458333  0.125000     24.000000
 -0.458333 -0.458333  0.125000     24.000000
 -0.375000 -0.458333  0.125000     48.000000
 -0.375000 -0.375000  0.125000      8.000000
  0.208333  0.208333  0.208333      8.000000
  0.291667  0.208333  0.208333     12.000000
 -0.208333  0.208333  0.208333      6.000000
 -0.291667  0.291667  0.208333     24.000000
 -0.375000  0.375000  0.208333     24.000000
 -0.291667  0.375000  0.208333     24.000000
 -0.458333  0.458333  0.208333     24.000000
 -0.375000  0.458333  0.208333     48.000000
 -0.458333 -0.458333  0.208333     24.000000
 -0.375000 -0.458333  0.208333     24.000000
 -0.291667  0.291667  0.291667      6.000000
 -0.375000  0.375000  0.291667     24.000000
 -0.458333  0.458333  0.291667     24.000000
 -0.375000  0.458333  0.291667     24.000000
 -0.458333 -0.458333  0.291667     24.000000
 -0.375000  0.375000  0.375000      6.000000
 -0.458333  0.458333  0.375000     24.000000
 -0.458333 -0.458333  0.375000      8.000000
 -0.458333  0.458333  0.458333      6.000000

 Following cartesian coordinates:
            Coordinates               Weight
  0.083333  0.083333  0.083333      8.000000
  0.083333  0.166667  0.166667     24.000000
  0.083333  0.250000  0.250000     24.000000
  0.083333  0.333333  0.333333     24.000000
  0.083333  0.416667  0.416667     24.000000
[...]
   0.66666667 -0.08333333  0.00000000       0.014
   0.75000000 -0.16666667  0.00000000       0.014
   0.75000000 -0.08333333  0.08333333       0.014
  -0.16666667 -0.16666667 -0.91666667       0.014
   0.75000000  0.00000000  0.00000000       0.003
   0.83333333 -0.08333333  0.00000000       0.014
  -0.08333333 -0.08333333 -0.91666667       0.005
   0.91666667  0.00000000  0.00000000       0.003

 k-points in reciprocal lattice and weights: K-Points
   0.04166667  0.04166667  0.04166667       0.005
   0.12500000  0.04166667  0.04166667       0.014
   0.20833333  0.04166667  0.04166667       0.014
   0.29166667  0.04166667  0.04166667       0.014
   0.37500000  0.04166667  0.04166667       0.014
   0.45833333  0.04166667  0.04166667       0.007
  -0.04166667  0.04166667  0.04166667       0.003
   0.12500000  0.12500000  0.04166667       0.014
   0.20833333  0.12500000  0.04166667       0.028
   0.29166667  0.12500000  0.04166667       0.028
   0.37500000  0.12500000  0.04166667       0.028
  -0.12500000  0.12500000  0.04166667       0.014
   0.20833333  0.20833333  0.04166667       0.014
   0.29166667  0.20833333  0.04166667       0.028
   0.37500000  0.20833333  0.04166667       0.014
  -0.20833333  0.20833333  0.04166667       0.014
  -0.12500000  0.20833333  0.04166667       0.014
   0.29166667  0.29166667  0.04166667       0.014
  -0.29166667  0.29166667  0.04166667       0.014
  -0.20833333  0.29166667  0.04166667       0.028
  -0.37500000  0.37500000  0.04166667       0.014
  -0.29166667  0.37500000  0.04166667       0.028
  -0.20833333  0.37500000  0.04166667       0.014
  -0.45833333  0.45833333  0.04166667       0.014
  -0.37500000  0.45833333  0.04166667       0.028
  -0.29166667  0.45833333  0.04166667       0.028
  -0.45833333 -0.45833333  0.04166667       0.014
  -0.37500000 -0.45833333  0.04166667       0.028
  -0.29166667 -0.45833333  0.04166667       0.014
  -0.37500000 -0.37500000  0.04166667       0.014
   0.12500000  0.12500000  0.12500000       0.005
   0.20833333  0.12500000  0.12500000       0.014
   0.29166667  0.12500000  0.12500000       0.014
   0.37500000  0.12500000  0.12500000       0.007
  -0.12500000  0.12500000  0.12500000       0.003
   0.20833333  0.20833333  0.12500000       0.014
   0.29166667  0.20833333  0.12500000       0.028
  -0.20833333  0.20833333  0.12500000       0.014
   0.29166667  0.29166667  0.12500000       0.005
  -0.29166667  0.29166667  0.12500000       0.014
  -0.20833333  0.29166667  0.12500000       0.014
  -0.37500000  0.37500000  0.12500000       0.014
  -0.29166667  0.37500000  0.12500000       0.028
  -0.45833333  0.45833333  0.12500000       0.014
  -0.37500000  0.45833333  0.12500000       0.028
  -0.29166667  0.45833333  0.12500000       0.014
  -0.45833333 -0.45833333  0.12500000       0.014
  -0.37500000 -0.45833333  0.12500000       0.028
  -0.37500000 -0.37500000  0.12500000       0.005
   0.20833333  0.20833333  0.20833333       0.005
   0.29166667  0.20833333  0.20833333       0.007
  -0.20833333  0.20833333  0.20833333       0.003
  -0.29166667  0.29166667  0.20833333       0.014
  -0.37500000  0.37500000  0.20833333       0.014
  -0.29166667  0.37500000  0.20833333       0.014
  -0.45833333  0.45833333  0.20833333       0.014
  -0.37500000  0.45833333  0.20833333       0.028
  -0.45833333 -0.45833333  0.20833333       0.014
  -0.37500000 -0.45833333  0.20833333       0.014
  -0.29166667  0.29166667  0.29166667       0.003
  -0.37500000  0.37500000  0.29166667       0.014
  -0.45833333  0.45833333  0.29166667       0.014
  -0.37500000  0.45833333  0.29166667       0.014
  -0.45833333 -0.45833333  0.29166667       0.014
  -0.37500000  0.37500000  0.37500000       0.003
  -0.45833333  0.45833333  0.37500000       0.014
  -0.45833333 -0.45833333  0.37500000       0.005
  -0.45833333  0.45833333  0.45833333       0.003

 position of ions in fractional coordinates (direct lattice)
   0.00000000  0.00000000  0.00000000

 position of ions in cartesian coordinates  (Angst):
   0.00000000  0.00000000  0.00000000

 k-point  1 :   0.0417 0.0417 0.0417  plane waves:     138
 k-point  2 :   0.1250 0.0417 0.0417  plane waves:     139
 k-point  3 :   0.2083 0.0417 0.0417  plane waves:     139
 k-point  4 :   0.2917 0.0417 0.0417  plane waves:     137
 k-point  5 :   0.3750 0.0417 0.0417  plane waves:     138
 k-point  6 :   0.4583 0.0417 0.0417  plane waves:     142
 k-point  7 :  -0.0417 0.0417 0.0417  plane waves:     140
 k-point  8 :   0.1250 0.1250 0.0417  plane waves:     140
 k-point  9 :   0.2083 0.1250 0.0417  plane waves:     138
 k-point 10 :   0.2917 0.1250 0.0417  plane waves:     139
 k-point 11 :   0.3750 0.1250 0.0417  plane waves:     137
 k-point 12 :  -0.1250 0.1250 0.0417  plane waves:     139
 k-point 13 :   0.2083 0.2083 0.0417  plane waves:     139
 k-point 14 :   0.2917 0.2083 0.0417  plane waves:     136
 k-point 15 :   0.3750 0.2083 0.0417  plane waves:     136
 k-point 16 :  -0.2083 0.2083 0.0417  plane waves:     140
 k-point 17 :  -0.1250 0.2083 0.0417  plane waves:     143
 k-point 18 :   0.2917 0.2917 0.0417  plane waves:     138
 k-point 19 :  -0.2917 0.2917 0.0417  plane waves:     140
 k-point 20 :  -0.2083 0.2917 0.0417  plane waves:     139
 k-point 21 :  -0.3750 0.3750 0.0417  plane waves:     136
 k-point 22 :  -0.2917 0.3750 0.0417  plane waves:     136
 k-point 23 :  -0.2083 0.3750 0.0417  plane waves:     134
 k-point 24 :  -0.4583 0.4583 0.0417  plane waves:     138
 k-point 25 :  -0.3750 0.4583 0.0417  plane waves:     136
 k-point 26 :  -0.2917 0.4583 0.0417  plane waves:     138
 k-point 27 :  -0.4583-0.4583 0.0417  plane waves:     138
 k-point 28 :  -0.3750-0.4583 0.0417  plane waves:     135
 k-point 29 :  -0.2917-0.4583 0.0417  plane waves:     138
 k-point 30 :  -0.3750-0.3750 0.0417  plane waves:     138
 k-point 31 :   0.1250 0.1250 0.1250  plane waves:     144
 k-point 32 :   0.2083 0.1250 0.1250  plane waves:     136
 k-point 33 :   0.2917 0.1250 0.1250  plane waves:     137
 k-point 34 :   0.3750 0.1250 0.1250  plane waves:     142
 k-point 35 :  -0.1250 0.1250 0.1250  plane waves:     144
 k-point 36 :   0.2083 0.2083 0.1250  plane waves:     139
 k-point 37 :   0.2917 0.2083 0.1250  plane waves:     143
 k-point 38 :  -0.2083 0.2083 0.1250  plane waves:     142
 k-point 39 :   0.2917 0.2917 0.1250  plane waves:     143
 k-point 40 :  -0.2917 0.2917 0.1250  plane waves:     136
 k-point 41 :  -0.2083 0.2917 0.1250  plane waves:     138
 k-point 42 :  -0.3750 0.3750 0.1250  plane waves:     131
 k-point 43 :  -0.2917 0.3750 0.1250  plane waves:     135
 k-point 44 :  -0.4583 0.4583 0.1250  plane waves:     134
 k-point 45 :  -0.3750 0.4583 0.1250  plane waves:     136
 k-point 46 :  -0.2917 0.4583 0.1250  plane waves:     136
 k-point 47 :  -0.4583-0.4583 0.1250  plane waves:     134
 k-point 48 :  -0.3750-0.4583 0.1250  plane waves:     137
 k-point 49 :  -0.3750-0.3750 0.1250  plane waves:     140
 k-point 50 :   0.2083 0.2083 0.2083  plane waves:     146
 k-point 51 :   0.2917 0.2083 0.2083  plane waves:     142
 k-point 52 :  -0.2083 0.2083 0.2083  plane waves:     140
 k-point 53 :  -0.2917 0.2917 0.2083  plane waves:     134
 k-point 54 :  -0.3750 0.3750 0.2083  plane waves:     132
 k-point 55 :  -0.2917 0.3750 0.2083  plane waves:     134
 k-point 56 :  -0.4583 0.4583 0.2083  plane waves:     134
 k-point 57 :  -0.3750 0.4583 0.2083  plane waves:     135
 k-point 58 :  -0.4583-0.4583 0.2083  plane waves:     133
 k-point 59 :  -0.3750-0.4583 0.2083  plane waves:     133
 k-point 60 :  -0.2917 0.2917 0.2917  plane waves:     132
 k-point 61 :  -0.3750 0.3750 0.2917  plane waves:     131
 k-point 62 :  -0.4583 0.4583 0.2917  plane waves:     129
 k-point 63 :  -0.3750 0.4583 0.2917  plane waves:     129
 k-point 64 :  -0.4583-0.4583 0.2917  plane waves:     131
 k-point 65 :  -0.3750 0.3750 0.3750  plane waves:     132
 k-point 66 :  -0.4583 0.4583 0.3750  plane waves:     127
 k-point 67 :  -0.4583-0.4583 0.3750  plane waves:     125
 k-point 68 :  -0.4583 0.4583 0.4583  plane waves:     116

 maximum and minimum number of plane-waves per node :       146      116

 maximum number of plane-waves:       146
 maximum index in each direction:
   IXMAX=    3   IYMAX=    3   IZMAX=    3
   IXMIN=   -3   IYMIN=   -3   IZMIN=   -3

 NGX is ok and might be reduce to  14
 NGY is ok and might be reduce to  14
 NGZ is ok and might be reduce to  14

 serial   3D FFT for wavefunctions
 parallel 3D FFT for charge:
    minimum data exchange during FFTs selected (reduces bandwidth)

 Broyden mixing: mesh for mixing (old mesh)
   NGX =  7   NGY =  7   NGZ =  7
  (NGX  = 28   NGY  = 28   NGZ  = 28)
  gives a total of    343 points

 initial charge density was supplied:
 charge density of overlapping atoms calculated
 number of electron       8.0000000 magnetization       4.0000000
 keeping initial charge density in first step

 Maximum index for augmentation-charges         2051 (set IRDMAX)

 First call to EWALD:  gamma=   0.784
 Maximum number of real-space cells 3x 3x 3
 Maximum number of reciprocal cells 3x 3x 3

 FEWALD executed in parallel

----------------------------------------- Iteration    1(   1)  ---------------------------------------

 BZINTS: Fermi energy: 12.400315;  8.000000 electrons
         Band energy:  62.384574;  BLOECHL correction: -0.425782

 eigenvalue-minimisations  :  3684
 total energy-change (2. order) : 0.1321325E+02  (-0.2972479E+03)
 number of electron       8.0000000 magnetization       4.0000000
 augmentation part        8.0000000 magnetization       4.0000000

 Free energy of the ion-electron system (eV)
  alpha Z        PSCENC =        59.71178263
  Ewald energy   TEWEN  =      -588.39789044
  -Hartree energ DENC   =      -112.96750494
  -exchange      EXHF   =         0.00000000
  -V(xc)+E(xc)   XCENC  =         5.94991612
  PAW double counting   =       552.89180568     -560.64780826
  entropy T*S    EENTRO =         0.00000000
  eigenvalues    EBANDS =        62.38457416
  atomic energy  EATOM  =       594.28837649
  Solvation  Ediel_sol  =         0.00000000
  free energy    TOTEN  =        13.21325145 eV

  energy without entropy =       13.21325145  energy(sigma->0) =       13.21325145

[...]

 eigenvalue-minimisations  :  3376
 total energy-change (2. order) :-0.2152365E+02  (-0.1959406E+02)
 number of electron       8.0000000 magnetization       4.0000000
 augmentation part        8.0000000 magnetization       4.0000000

[...]

 Broyden mixing:
  rms(total) = 0.12098E+01    rms(broyden)= 0.12095E+01
  rms(prec ) = 0.32988E+01
  weight for this iteration     100.00

[...]

 eigenvalues of (default mixing * dielectric matrix)
  average eigenvalue GAMMA=   0.7666
  0.7666

[...]

 eigenvalue-minimisations  :  3628
 total energy-change (2. order) : 0.8419291E-04  (-0.7006117E-04)
 number of electron       8.0000014 magnetization       2.2219960
 augmentation part        4.1518965 magnetization       1.8401720

[...]

 Broyden mixing:
  rms(total) = 0.36876E-02    rms(broyden)= 0.36867E-02
  rms(prec ) = 0.40884E-02
  weight for this iteration     100.00

 eigenvalues of (default mixing * dielectric matrix)
  average eigenvalue GAMMA=   1.3187
  2.3998  2.3998  0.9955  0.6450  0.7361  0.7361

[...]

----------------------------------------- Iteration    1(  12)  ---------------------------------------

[...]

 eigenvalue-minimisations  :  3176
 total energy-change (2. order) :-0.7975309E-06  (-0.2079351E-06)
 number of electron       8.0000014 magnetization       2.2185222
 augmentation part        4.1526603 magnetization       1.8365077

 Free energy of the ion-electron system (eV)
  alpha Z        PSCENC =        59.71178263
  Ewald energy   TEWEN  =      -588.39789044
  -Hartree energ DENC   =       -96.48876597
  -exchange      EXHF   =         0.00000000
  -V(xc)+E(xc)   XCENC  =         4.29772564
  PAW double counting   =       711.86518367     -720.92152051
  entropy T*S    EENTRO =         0.00000000
  eigenvalues    EBANDS =        27.40196437
  atomic energy  EATOM  =       594.28837649
  Solvation  Ediel_sol  =         0.00000000
  free energy    TOTEN  =        -8.24314412 eV

  energy without entropy =       -8.24314412  energy(sigma->0) =       -8.24314412

 average (electrostatic) potential at core
  the test charge radii are     1.0103
  (the norm of the test charge is              1.0000)
       1 -43.4841

 E-fermi :   5.5911     XC(G=0): -13.0134     alpha+bet :-13.3918

 spin component 1

 k-point     1 :       0.0417    0.0417    0.0417
  band No.  band energies     occupation
      1      -2.2579      1.00000
      2       3.2601      1.00000
      3       3.2601      1.00000
      4       3.6066      1.00000
      5       4.5265      1.00000
      6       4.5265      1.00000
      7      28.5641      0.00000
      8      28.5641      0.00000
      9      30.8725      0.00000
     10      33.0837      0.00000
     11      35.6009      0.00000
     12      35.6009      0.00000

[...]

 spin component 2

[...]

 k-point    68 :      -0.4583    0.4583    0.4583
  band No.  band energies     occupation
      1       2.7827      1.00000
      2       2.8061      1.00000
      3       7.8149      0.00000
      4       7.8150      0.00000
      5       7.9243      0.00000
      6      14.8715      0.00000
      7      16.0034      0.00000
      8      16.0034      0.00000
      9      22.1467      0.00000
     10      22.7088      0.00000
     11      27.5390      0.00000
     12      44.5603      0.00000

 soft charge-density along one line, spin component           1
         0         1         2         3         4         5         6         7         8         9
 total charge-density along one line

 soft charge-density along one line, spin component           2
         0         1         2         3         4         5         6         7         8         9
 total charge-density along one line

------------------------ aborting loop because EDIFF is reached ----------------------------------------

 total charge

# of ion     s       p       d       tot
  1        0.478   0.526   6.218   7.223

 magnetization (x)

[...]

  FORCE on cell =-STRESS in cart. coord.  units (eV):
  Direction    XX          YY          ZZ          XY          YZ          ZX
  Alpha Z    59.71178    59.71178    59.71178
  Ewald    -196.13262  -196.13262  -196.13262    -0.00000     0.00000     0.00000
  Hartree    32.15998    32.15998    32.15998    -0.00000    -0.00000    -0.00000
  E(xc)     -39.67270   -39.67270   -39.67270    -0.00000    -0.00000    -0.00000
  Local      58.45833    58.45833    58.45833    -0.00005    -0.00005    -0.00005
  n-local   -27.09620   -25.96143   -25.10705     1.04922    -0.64130    -1.42967
  augment    38.76891    38.76891    38.76891     0.00004     0.00004     0.00004
  Kinetic    72.98734    72.32392    72.13240    -2.25584     1.93792     1.25296
  Fock        0.00000     0.00000     0.00000     0.00000     0.00000     0.00000
  Total      -0.28000    -0.28000    -0.28000    -0.00000     0.00000    -0.00000
  in kB     -38.75836   -38.75836   -38.75836    -0.00000     0.00000    -0.00000

 VOLUME and BASIS-vectors are now :
  energy-cutoff  :      300.00
  volume of cell :       11.57
      direct lattice vectors                 reciprocal lattice vectors
    -1.425000000  1.425000000  1.425000000     0.000000000  0.350877193  0.350877193
     1.425000000 -1.425000000  1.425000000     0.350877193  0.000000000  0.350877193
     1.425000000  1.425000000 -1.425000000     0.350877193  0.350877193  0.000000000

  length of vectors
     2.468172401  2.468172401  2.468172401     0.496215285  0.496215285  0.496215285

 FORCES acting on ions
    electron-ion (+dipol)            ewald-force                    non-local-force                 convergence-correction
   -.120E-13 -.847E-14 0.116E-13   0.131E-16 0.134E-14 -.680E-15   0.517E-25 0.517E-25 -.517E-25   -.936E-14 -.701E-14 0.336E-14
   -.120E-13 -.847E-14 0.116E-13   0.131E-16 0.134E-14 -.680E-15   0.517E-25 0.517E-25 -.517E-25   -.936E-14 -.701E-14 0.336E-14

 POSITION                                       TOTAL-FORCE (eV/Angst)
      0.00000      0.00000      0.00000         0.000000      0.000000      0.000000
    total drift:                               -0.000000     -0.000000      0.000000

  FREE ENERGIE OF THE ION-ELECTRON SYSTEM (eV)
  free  energy   TOTEN  =        -8.24314412 eV

  energy  without entropy=       -8.24314412  energy(sigma->0) =       -8.24314412

 writing wavefunctions

 total charge

[...]

 magnetization (x)

# of ion     s       p       d       tot
  1       -0.016  -0.062   2.302   2.224

 BZINTS: Fermi energy:  5.591075;  8.000000 electrons
         Band energy:  27.401964;  BLOECHL correction: -0.032208