 vasp.5.4.1 24Jun15 (build Jul 19 2016 16:50:41) complex

 executed on           IFC91_ompi date 2019.10.10  11:16:05

 INCAR:
 POTCAR:    PAW_PBE Si 05Jan2001
 POTCAR:    PAW_PBE Si 05Jan2001
   VRHFIN = Si: s2p2

   TITEL  = PAW_PBE Si 05Jan2001
   POMASS =   28.085; ZVAL   =    4.000    mass and valenz
   ENMAX  =  245.345; ENMIN  =  184.009 eV

  PAW_PBE Si 05Jan2001                  :

 POSCAR: Si HCP
  positions in direct lattice
 exchange correlation table for  LEXCH =        8
   RHO(1)=    0.500       N(1)  =     2000
   RHO(2)=  100.500       N(2)  =     4000

 ion  position               nearest neighbor table
   1  0.000  0.000  0.000-   2 2.80   2 2.80   2 2.80   2 2.80   2 2.80   2 2.80
   2  0.333  0.667  0.500-   1 2.80   1 2.80   1 2.80   1 2.80   1 2.80   1 2.80

  LATTYP: Found a hexagonal cell.
 ALAT       =     2.8000000000
 C/A-ratio  =     1.6329900000

  Lattice vectors:

 A1 = (   2.8000000000,   0.0000000000,   0.0000000000)
 A2 = (  -1.4000000000,   2.4248711306,   0.0000000000)
 A3 = (   0.0000000000,   0.0000000000,   4.5723720000)

Analysis of symmetry for initial positions (statically):
 Subroutine PRICEL returns:
 Original cell was already a primitive cell.

 Routine SETGRP: Setting up the symmetry group for a
 hexagonal supercell.

 Subroutine GETGRP returns: Found 24 space group operations
 (whereof 12 operations were pure point group operations)
 out of a pool of 24 trial point group operations.

The static configuration has the point symmetry D_3h.
 The point group associated with its full space group is D_6h.

Analysis of symmetry for dynamics (positions and initial velocities):
 Subroutine PRICEL returns:
 Original cell was already a primitive cell.

 Routine SETGRP: Setting up the symmetry group for a
 hexagonal supercell.

 Subroutine GETGRP returns: Found 24 space group operations
 (whereof 12 operations were pure point group operations)
 out of a pool of 24 trial point group operations.

The dynamic configuration has the point symmetry D_3h.
 The point group associated with its full space group is D_6h.

 Subroutine INISYM returns: Found 24 space group operations
 (whereof 12 operations are pure point group operations),
 and found     1 'primitive' translations

 KPOINTS: K-Points

Automatic generation of k-mesh.
Space group operators:
 irot       det(A)        alpha          n_x          n_y          n_z        tau_x        tau_y        tau_z
    1     1.000000     0.000000     1.000000     0.000000     0.000000     0.000000     0.000000     0.000000
    2    -1.000000    60.000000     0.000000     0.000000    -1.000000     0.000000     0.000000     0.000000
    3     1.000000   120.000000     0.000000     0.000000    -1.000000     0.000000     0.000000     0.000000
    4    -1.000000   180.000000     0.000000     0.000000     1.000000     0.000000     0.000000     0.000000
    5     1.000000   120.000000     0.000000     0.000000     1.000000     0.000000     0.000000     0.000000
    6    -1.000000    60.000000     0.000000     0.000000     1.000000     0.000000     0.000000     0.000000
    7    -1.000000   180.000000     1.000000     0.000000     0.000000     0.000000     0.000000     0.000000
    8     1.000000   180.000000     0.866025    -0.500000     0.000000     0.000000     0.000000     0.000000
    9    -1.000000   180.000000     0.500000    -0.866025     0.000000     0.000000     0.000000     0.000000
   10     1.000000   180.000000     0.000000     1.000000     0.000000     0.000000     0.000000     0.000000
   11    -1.000000   180.000000    -0.500000    -0.866025     0.000000     0.000000     0.000000     0.000000
   12     1.000000   180.000000     0.866025     0.500000     0.000000     0.000000     0.000000     0.000000
   13    -1.000000     0.000000     1.000000     0.000000     0.000000     0.333333     0.666667     0.500000
   14     1.000000    60.000000     0.000000     0.000000    -1.000000     0.333333     0.666667     0.500000
   15    -1.000000   120.000000     0.000000     0.000000    -1.000000     0.333333     0.666667     0.500000
   16     1.000000   180.000000     0.000000     0.000000     1.000000     0.333333     0.666667     0.500000
   17    -1.000000   120.000000     0.000000     0.000000     1.000000     0.333333     0.666667     0.500000
   18     1.000000    60.000000     0.000000     0.000000     1.000000     0.333333     0.666667     0.500000
   19     1.000000   180.000000     1.000000     0.000000     0.000000     0.333333     0.666667     0.500000
   20    -1.000000   180.000000     0.866025    -0.500000     0.000000     0.333333     0.666667     0.500000
   21     1.000000   180.000000     0.500000    -0.866025     0.000000     0.333333     0.666667     0.500000
   22    -1.000000   180.000000     0.000000     1.000000     0.000000     0.333333     0.666667     0.500000
   23     1.000000   180.000000    -0.500000    -0.866025     0.000000     0.333333     0.666667     0.500000
   24    -1.000000   180.000000     0.866025     0.500000     0.000000     0.333333     0.666667     0.500000

 Subroutine IBZKPT returns following result:

 Found     36 irreducible k-points:

 Following reciprocal coordinates:
            Coordinates               Weight
  0.083333  0.083333  0.083333     96.000000
  0.250000  0.083333  0.083333    192.000000
  0.416667  0.083333  0.083333    192.000000
 -0.416667  0.083333  0.083333    192.000000
 -0.250000  0.083333  0.083333    192.000000
 -0.083333  0.083333  0.083333     96.000000
  0.250000  0.250000  0.083333     96.000000
  0.416667  0.250000  0.083333    192.000000
 -0.416667  0.250000  0.083333    192.000000
 -0.250000  0.250000  0.083333     96.000000
  0.416667  0.416667  0.083333     96.000000
 -0.416667  0.416667  0.083333     96.000000
  0.083333  0.083333  0.250000     96.000000
  0.250000  0.083333  0.250000    192.000000
  0.416667  0.083333  0.250000    192.000000
 -0.416667  0.083333  0.250000    192.000000
 -0.250000  0.083333  0.250000    192.000000
 -0.083333  0.083333  0.250000     96.000000
  0.250000  0.250000  0.250000     96.000000
  0.416667  0.250000  0.250000    192.000000
 -0.416667  0.250000  0.250000    192.000000
 -0.250000  0.250000  0.250000     96.000000
  0.416667  0.416667  0.250000     96.000000
 -0.416667  0.416667  0.250000     96.000000
  0.083333  0.083333  0.416667     96.000000
  0.250000  0.083333  0.416667    192.000000
  0.416667  0.083333  0.416667    192.000000
 -0.416667  0.083333  0.416667    192.000000
 -0.250000  0.083333  0.416667    192.000000
 -0.083333  0.083333  0.416667     96.000000
  0.250000  0.250000  0.416667     96.000000
  0.416667  0.250000  0.416667    192.000000
 -0.416667  0.250000  0.416667    192.000000
 -0.250000  0.250000  0.416667     96.000000
  0.416667  0.416667  0.416667     96.000000
 -0.416667  0.416667  0.416667     96.000000

 Following cartesian coordinates:
            Coordinates               Weight
  0.083333  0.144338  0.051031     96.000000
  0.250000  0.240563  0.051031    192.000000
  0.416667  0.336788  0.051031    192.000000
 -0.416667 -0.144338  0.051031    192.000000
 -0.250000 -0.048113  0.051031    192.000000
 -0.083333  0.048113  0.051031     96.000000
  0.250000  0.433013  0.051031     96.000000
  0.416667  0.529238  0.051031    192.000000
 -0.416667  0.048113  0.051031    192.000000
 -0.250000  0.144338  0.051031     96.000000
  0.416667  0.721688  0.051031     96.000000
 -0.416667  0.240563  0.051031     96.000000
  0.083333  0.144338  0.153093     96.000000
  0.250000  0.240563  0.153093    192.000000
  0.416667  0.336788  0.153093    192.000000
 -0.416667 -0.144338  0.153093    192.000000
 -0.250000 -0.048113  0.153093    192.000000
 -0.083333  0.048113  0.153093     96.000000
  0.250000  0.433013  0.153093     96.000000
  0.416667  0.529238  0.153093    192.000000
 -0.416667  0.048113  0.153093    192.000000
 -0.250000  0.144338  0.153093     96.000000
  0.416667  0.721688  0.153093     96.000000
 -0.416667  0.240563  0.153093     96.000000
  0.083333  0.144338  0.255156     96.000000
  0.250000  0.240563  0.255156    192.000000
  0.416667  0.336788  0.255156    192.000000
 -0.416667 -0.144338  0.255156    192.000000
 -0.250000 -0.048113  0.255156    192.000000
 -0.083333  0.048113  0.255156     96.000000
  0.250000  0.433013  0.255156     96.000000
  0.416667  0.529238  0.255156    192.000000
 -0.416667  0.048113  0.255156    192.000000
 -0.250000  0.144338  0.255156     96.000000
  0.416667  0.721688  0.255156     96.000000
 -0.416667  0.240563  0.255156     96.000000

 I would recommend the setting:
   dimension x,y,z NGX =    19 NGY =   19 NGZ =   32
 SYSTEM =  Si beta-tin
 POSCAR =  Si HCP

 Startparameter for this run:
   NWRITE =      2    write-flag & timer
   PREC   = accura    normal or accurate (medium, high low for compatibility)
   ISTART =      0    job   : 0-new  1-cont  2-samecut
   ICHARG =      2    charge: 1-file 2-atom 10-const
   ISPIN  =      1    spin polarized calculation?
   LNONCOLLINEAR =      F non collinear calculations
   LSORBIT =      F    spin-orbit coupling
   INIWAV =      1    electr: 0-lowe 1-rand  2-diag
   LASPH  =      F    aspherical Exc in radial PAW
   METAGGA=      F    non-selfconsistent MetaGGA calc.

 Electronic Relaxation 1
   ENCUT  =  450.0 eV  33.07 Ry    5.75 a.u.   4.84  4.84  7.91*2*pi/ulx,y,z
   ENINI  =  450.0     initial cutoff
   ENAUG  =  322.1 eV  augmentation charge cutoff
   NELM   =     60;   NELMIN=  2; NELMDL= -5     # of ELM steps
   EDIFF  = 0.1E-04   stopping-criterion for ELM
   LREAL  =      F    real-space projection
   NLSPLINE    = F    spline interpolate recip. space projectors
   LCOMPAT=      F    compatible to vasp.4.4
   GGA_COMPAT  = T    GGA compatible to vasp.4.4-vasp.4.6
   LMAXPAW     = -100 max onsite density
   LMAXMIX     =    2 max onsite mixed and CHGCAR
   VOSKOWN=      0    Vosko Wilk Nusair interpolation
   ROPT   =    0.00000
 Ionic relaxation
   EDIFFG = -.1E-01   stopping-criterion for IOM
   NSW    =    100    number of steps for IOM
   NBLOCK =      1;   KBLOCK =    100    inner block; outer block
   IBRION =      2    ionic relax: 0-MD 1-quasi-New 2-CG
   NFREE  =      1    steps in history (QN), initial steepest desc. (CG)
   ISIF   =      4    stress and relaxation
   IWAVPR =     11    prediction:  0-non 1-charg 2-wave 3-comb
   ISYM   =      2    0-nonsym 1-usesym 2-fastsym
   LCORR  =      T    Harris-Foulkes like correction to forces

   POTIM  = 0.5000    time-step for ionic-motion
   TEIN   =    0.0    initial temperature
   TEBEG  =    0.0;   TEEND  =   0.0 temperature during run
   SMASS  =  -3.00    Nose mass-parameter (am)
   estimated Nose-frequenzy (Omega)   =  0.10E-29 period in steps =****** mass=  -0.179E-27a.u.
   SCALEE = 1.0000    scale energy and forces
   NPACO  =    256;   APACO  = 16.0  distance and # of slots for P.C.
   PSTRESS=    0.0 pullay stress

  Mass of Ions in am
   POMASS =  28.09
  Ionic Valenz
   ZVAL   =   4.00
  Atomic Wigner-Seitz radii
  virtual crystal weights
   VCA    =   1.00
   NELECT =       8.0000    total number of electrons
   NUPDOWN=      -1.0000    fix difference up-down

 DOS related values:
[...]
   0.41666667  0.72168784  0.15309341       0.019
  -0.41666667  0.24056261  0.15309341       0.019
   0.08333333  0.14433757  0.25515568       0.019
   0.25000000  0.24056261  0.25515568       0.037
   0.41666667  0.33678766  0.25515568       0.037
  -0.41666667 -0.14433757  0.25515568       0.037
  -0.25000000 -0.04811252  0.25515568       0.037
  -0.08333333  0.04811252  0.25515568       0.019
   0.25000000  0.43301270  0.25515568       0.019
   0.41666667  0.52923775  0.25515568       0.037
  -0.41666667  0.04811252  0.25515568       0.037
  -0.25000000  0.14433757  0.25515568       0.019
   0.41666667  0.72168784  0.25515568       0.019
  -0.41666667  0.24056261  0.25515568       0.019

 k-points in reciprocal lattice and weights: K-Points
   0.08333333  0.08333333  0.08333333       0.019
   0.25000000  0.08333333  0.08333333       0.037
   0.41666667  0.08333333  0.08333333       0.037
  -0.41666667  0.08333333  0.08333333       0.037
  -0.25000000  0.08333333  0.08333333       0.037
  -0.08333333  0.08333333  0.08333333       0.019
   0.25000000  0.25000000  0.08333333       0.019
   0.41666667  0.25000000  0.08333333       0.037
  -0.41666667  0.25000000  0.08333333       0.037
  -0.25000000  0.25000000  0.08333333       0.019
   0.41666667  0.41666667  0.08333333       0.019
  -0.41666667  0.41666667  0.08333333       0.019
   0.08333333  0.08333333  0.25000000       0.019
   0.25000000  0.08333333  0.25000000       0.037
   0.41666667  0.08333333  0.25000000       0.037
  -0.41666667  0.08333333  0.25000000       0.037
  -0.25000000  0.08333333  0.25000000       0.037
  -0.08333333  0.08333333  0.25000000       0.019
   0.25000000  0.25000000  0.25000000       0.019
   0.41666667  0.25000000  0.25000000       0.037
  -0.41666667  0.25000000  0.25000000       0.037
  -0.25000000  0.25000000  0.25000000       0.019
   0.41666667  0.41666667  0.25000000       0.019
  -0.41666667  0.41666667  0.25000000       0.019
   0.08333333  0.08333333  0.41666667       0.019
   0.25000000  0.08333333  0.41666667       0.037
   0.41666667  0.08333333  0.41666667       0.037
  -0.41666667  0.08333333  0.41666667       0.037
  -0.25000000  0.08333333  0.41666667       0.037
  -0.08333333  0.08333333  0.41666667       0.019
   0.25000000  0.25000000  0.41666667       0.019
   0.41666667  0.25000000  0.41666667       0.037
  -0.41666667  0.25000000  0.41666667       0.037
  -0.25000000  0.25000000  0.41666667       0.019
   0.41666667  0.41666667  0.41666667       0.019
  -0.41666667  0.41666667  0.41666667       0.019

 position of ions in fractional coordinates (direct lattice)
   0.00000000  0.00000000  0.00000000
   0.33333333  0.66666667  0.50000000

 position of ions in cartesian coordinates  (Angst):
   0.00000000  0.00000000  0.00000000
  -0.00000000  1.61658075  2.28618600

 k-point  1 :   0.0833 0.0833 0.0833  plane waves:     669
 k-point  2 :   0.2500 0.0833 0.0833  plane waves:     664
 k-point  3 :   0.4167 0.0833 0.0833  plane waves:     678
 k-point  4 :  -0.4167 0.0833 0.0833  plane waves:     673
 k-point  5 :  -0.2500 0.0833 0.0833  plane waves:     667
 k-point  6 :  -0.0833 0.0833 0.0833  plane waves:     674
 k-point  7 :   0.2500 0.2500 0.0833  plane waves:     670
 k-point  8 :   0.4167 0.2500 0.0833  plane waves:     679
 k-point  9 :  -0.4167 0.2500 0.0833  plane waves:     666
 k-point 10 :  -0.2500 0.2500 0.0833  plane waves:     670
 k-point 11 :   0.4167 0.4167 0.0833  plane waves:     680
 k-point 12 :  -0.4167 0.4167 0.0833  plane waves:     676
 k-point 13 :   0.0833 0.0833 0.2500  plane waves:     669
 k-point 14 :   0.2500 0.0833 0.2500  plane waves:     671
 k-point 15 :   0.4167 0.0833 0.2500  plane waves:     674
 k-point 16 :  -0.4167 0.0833 0.2500  plane waves:     671
 k-point 17 :  -0.2500 0.0833 0.2500  plane waves:     669
 k-point 18 :  -0.0833 0.0833 0.2500  plane waves:     668
 k-point 19 :   0.2500 0.2500 0.2500  plane waves:     676
 k-point 20 :   0.4167 0.2500 0.2500  plane waves:     680
 k-point 21 :  -0.4167 0.2500 0.2500  plane waves:     675
 k-point 22 :  -0.2500 0.2500 0.2500  plane waves:     671
 k-point 23 :   0.4167 0.4167 0.2500  plane waves:     681
 k-point 24 :  -0.4167 0.4167 0.2500  plane waves:     674
 k-point 25 :   0.0833 0.0833 0.4167  plane waves:     666
 k-point 26 :   0.2500 0.0833 0.4167  plane waves:     678
 k-point 27 :   0.4167 0.0833 0.4167  plane waves:     675
 k-point 28 :  -0.4167 0.0833 0.4167  plane waves:     676
 k-point 29 :  -0.2500 0.0833 0.4167  plane waves:     668
 k-point 30 :  -0.0833 0.0833 0.4167  plane waves:     672
 k-point 31 :   0.2500 0.2500 0.4167  plane waves:     680
 k-point 32 :   0.4167 0.2500 0.4167  plane waves:     678
 k-point 33 :  -0.4167 0.2500 0.4167  plane waves:     672
 k-point 34 :  -0.2500 0.2500 0.4167  plane waves:     670
 k-point 35 :   0.4167 0.4167 0.4167  plane waves:     679
 k-point 36 :  -0.4167 0.4167 0.4167  plane waves:     670

 maximum and minimum number of plane-waves per node :       681      664

 maximum number of plane-waves:       681
 maximum index in each direction:
   IXMAX=    5   IYMAX=    4   IZMAX=    7
   IXMIN=   -5   IYMIN=   -5   IZMIN=   -8

 WARNING: aliasing errors must be expected set NGX to  22 to avoid them
 NGY is ok and might be reduce to  20
 NGZ is ok and might be reduce to  32
 aliasing errors are usually negligible using standard VASP settings
 and one can safely disregard these warnings

 serial   3D FFT for wavefunctions
 parallel 3D FFT for charge:
    minimum data exchange during FFTs selected (reduces bandwidth)

 Broyden mixing: mesh for mixing (old mesh)
   NGX =  9   NGY =  9   NGZ = 15
  (NGX  = 40   NGY  = 40   NGZ  = 64)
  gives a total of   1215 points

 initial charge density was supplied:
 charge density of overlapping atoms calculated
 number of electron       8.0000000 magnetization
 keeping initial charge density in first step

 Maximum index for augmentation-charges         3347 (set IRDMAX)

 First call to EWALD:  gamma=   0.564
 Maximum number of real-space cells 3x 3x 2
 Maximum number of reciprocal cells 3x 3x 4

 FEWALD executed in parallel

----------------------------------------- Iteration    1(   1)  ---------------------------------------

 eigenvalue-minimisations  :   576
 total energy-change (2. order) : 0.2940939E+01  (-0.3091538E+03)
 number of electron       8.0000000 magnetization
 augmentation part        8.0000000 magnetization

 Free energy of the ion-electron system (eV)
  alpha Z        PSCENC =         4.33736774
  Ewald energy   TEWEN  =      -266.75488720
  -Hartree energ DENC   =        -1.53857074
  -exchange      EXHF   =         0.00000000
  -V(xc)+E(xc)   XCENC  =       -17.97658732
  PAW double counting   =       176.24759923     -141.06103558
  entropy T*S    EENTRO =        -0.00296533
  eigenvalues    EBANDS =        43.55809041
  atomic energy  EATOM  =       206.13192747
  Solvation  Ediel_sol  =         0.00000000
  free energy    TOTEN  =         2.94093868 eV

  energy without entropy =        2.94390401  energy(sigma->0) =        2.94242134

[...]

 eigenvalue-minimisations  :   848
 total energy-change (2. order) :-0.1258541E+02  (-0.1216811E+02)
 number of electron       8.0000000 magnetization
 augmentation part        8.0000000 magnetization

[...]

 Broyden mixing:
  rms(total) = 0.32638E+00    rms(broyden)= 0.32638E+00
  rms(prec ) = 0.38369E+00
  weight for this iteration     100.00

[...]

 eigenvalues of (default mixing * dielectric matrix)
  average eigenvalue GAMMA=   2.2011
  2.2011

[...]

 average (electrostatic) potential at core
  the test charge radii are     0.9892
  (the norm of the test charge is              1.0000)
       1 -80.8563       2 -80.8563

 E-fermi :   9.1983     XC(G=0): -10.9143     alpha+bet :-15.4516

 k-point     1 :       0.0833    0.0833    0.0833
  band No.  band energies     occupation
      1      -3.9946      2.00000
      2       1.6343      2.00000
      3       4.0427      2.00000
      4      13.2058      0.00000
      5      13.8545      0.00000
      6      17.8076      0.00000
      7      18.2928      0.00000
      8      18.3143      0.00000

[...]

 soft charge-density along one line, spin component           1
         0         1         2         3         4         5         6         7         8         9
 total charge-density along one line

------------------------ aborting loop because EDIFF is reached ----------------------------------------

  FORCE on cell =-STRESS in cart. coord.  units (eV):
  Direction    XX          YY          ZZ          XY          YZ          ZX
  Alpha Z     4.33737     4.33737     4.33737
  Ewald     -88.97921   -88.97921   -88.79666    -0.00000     0.00000    -0.00000
  Hartree     0.36538     0.36538     0.39007    -0.00000    -0.00000    -0.00000
  E(xc)     -24.94026   -24.94026   -24.95837     0.00000    -0.00000    -0.00000
  Local     -11.03942   -11.03942   -11.28850    -0.00001    -0.00000    -0.00000
  n-local    75.47577    77.31172    76.75835    -0.59379    -0.02244    -0.40293
  augment   -12.65940   -12.65940   -12.63101     0.00001     0.00000     0.00000
  Kinetic    69.59056    41.53360    54.57241     9.57039    -0.13522    -0.18961
  Fock        0.00000     0.00000     0.00000     0.00000     0.00000     0.00000
  Total      -0.95971    -0.95971    -1.61634     0.00000     0.00000     0.00000
  in kB     -49.52919   -49.52919   -83.41703     0.00000     0.00000     0.00000

 VOLUME and BASIS-vectors are now :
  energy-cutoff  :      450.00
  volume of cell :       31.04
      direct lattice vectors                 reciprocal lattice vectors
     2.800000000  0.000000000  0.000000000     0.357142857  0.206196525  0.000000000
    -1.400000000  2.424871131  0.000000000     0.000000000  0.412393049  0.000000000
     0.000000000  0.000000000  4.572372000     0.000000000  0.000000000  0.218704865

[...]

 FORCES acting on ions
    electron-ion (+dipol)            ewald-force                    non-local-force                 convergence-correction
   0.202E-08 -.117E-08 0.197E-14   -.879E-13 0.735E-13 -.366E-14   -.222E-16 0.133E-17 0.000E+00   -.726E-09 0.419E-09 0.139E-14
   -.200E-07 0.115E-07 -.929E-14   0.881E-13 -.730E-13 0.366E-14   0.208E-16 0.469E-17 0.000E+00   0.728E-09 -.420E-09 -.139E-14
   -.180E-07 0.104E-07 -.732E-14   0.222E-15 0.538E-15 0.000E+00   -.138E-17 0.602E-17 0.000E+00   0.208E-11 -.120E-11 -.362E-18

 POSITION                                       TOTAL-FORCE (eV/Angst)
      0.00000      0.00000      0.00000        -0.000000      0.000000      0.000000
     -0.00000      1.61658      2.28619         0.000000      0.000000      0.000000
    total drift:                               -0.000000      0.000000     -0.000000

  FREE ENERGIE OF THE ION-ELECTRON SYSTEM (eV)
  free  energy   TOTEN  =        -9.80184349 eV

  energy  without entropy=       -9.79846859  energy(sigma->0) =       -9.80015604

[...]

 d Force = 0.0000000E+00[ 0.000E+00, 0.000E+00]  d Energy = 0.8761814E-02-0.876E-02
 d Force = 0.0000000E+00[ 0.000E+00, 0.000E+00]  d Ewald  =-0.1119240E-01 0.112E-01

 Steepest descent step on ions:
 trial-energy change:   -0.008762  1 .order   -0.008114   -0.006934   -0.009295
  (g-gl).g = 0.693E-02      g.g   = 0.693E-02  gl.gl    = 0.000E+00
 g(Force)  = 0.968E-51   g(Stress)= 0.693E-02 ortho     = 0.000E+00
 gamma     =   0.00000
 trial     =   1.00000
 opt step  =   2.36317  (harmonic =   4.00000) maximal distance =0.00000000
 next E    =    -9.818581   (d E  =  -0.01674)

[...]

 eigenvalues of (default mixing * dielectric matrix)
  average eigenvalue GAMMA=   1.6309
  1.0129  2.2490

[...]

 FEWALD executed in parallel

[...]

 eigenvalue-minimisations  :   896
 total energy-change (2. order) :-0.2209578E-04  (-0.3683259E-04)
 number of electron       7.9999999 magnetization
 augmentation part       -0.4970726 magnetization

 Broyden mixing:
  rms(total) = 0.10200E-02    rms(broyden)= 0.10200E-02
  rms(prec ) = 0.23539E-02
  weight for this iteration     100.00

[...]

----------------------------------------- Iteration    4(   2)  ---------------------------------------

 eigenvalue-minimisations  :   440
 total energy-change (2. order) : 0.1628435E-05  (-0.5689412E-06)
 number of electron       7.9999999 magnetization
 augmentation part       -0.4970726 magnetization

 Free energy of the ion-electron system (eV)
  alpha Z        PSCENC =         4.33736774
  Ewald energy   TEWEN  =      -266.69710948
  -Hartree energ DENC   =        -1.15384434
  -exchange      EXHF   =         0.00000000
  -V(xc)+E(xc)   XCENC  =       -17.90428605
  PAW double counting   =       513.41567369     -478.22440603
  entropy T*S    EENTRO =        -0.00369591
  eigenvalues    EBANDS =        30.28020057
  atomic energy  EATOM  =       206.13192747
  Solvation  Ediel_sol  =         0.00000000
  free energy    TOTEN  =        -9.81817234 eV

  energy without entropy =       -9.81447643  energy(sigma->0) =       -9.81632438

 average (electrostatic) potential at core
  the test charge radii are     0.9892
  (the norm of the test charge is              1.0000)
       1 -80.8512       2 -80.8512

 E-fermi :   9.3107     XC(G=0): -10.9132     alpha+bet :-15.4516

[...]

 k-point    36 :      -0.4167    0.4167    0.4167
  band No.  band energies     occupation
      1       0.7832      2.00000
      2       1.9685      2.00000
      3       4.7563      2.00000
      4       5.9083      2.00000
      5      13.0714      0.00000
      6      13.2760      0.00000
      7      14.1273      0.00000
      8      14.9665      0.00000

 soft charge-density along one line, spin component           1
         0         1         2         3         4         5         6         7         8         9
 total charge-density along one line

------------------------ aborting loop because EDIFF is reached ----------------------------------------

  FORCE on cell =-STRESS in cart. coord.  units (eV):
  Direction    XX          YY          ZZ          XY          YZ          ZX
  Alpha Z     4.33737     4.33737     4.33737
  Ewald     -90.30441   -90.30441   -86.08846    -0.00000    -0.00000    -0.00000
  Hartree     0.27782     0.27782     0.59879    -0.00000    -0.00000    -0.00000
  E(xc)     -24.94074   -24.94074   -24.98322    -0.00000     0.00000    -0.00000
  Local      -9.63080    -9.63080   -14.29834    -0.00001    -0.00000    -0.00000
  n-local    75.50872    77.16217    77.29472    -0.47885    -0.03453    -0.35510
  augment   -12.66352   -12.66352   -12.71336     0.00001     0.00000     0.00000
  Kinetic    69.02307    41.93955    54.74403     8.99053     0.05144     0.97208
  Fock        0.00000     0.00000     0.00000     0.00000     0.00000     0.00000
  Total      -1.10752    -1.10752    -1.10847     0.00000    -0.00000     0.00000
  in kB     -57.15784   -57.15784   -57.20661     0.00000    -0.00000     0.00000

 VOLUME and BASIS-vectors are now :
  energy-cutoff  :      450.00
  volume of cell :       31.04
      direct lattice vectors                 reciprocal lattice vectors
     2.836214623  0.000000000  0.000000000     0.352582626  0.203563674  0.000000000
    -1.418107311  2.456233914 -0.000000000     0.000000000  0.407127348  0.000000000
     0.000000000  0.000000000  4.456351466     0.000000000  0.000000000  0.224398818

  length of vectors
     2.836214623  2.836214623  4.456351466     0.407127348  0.407127348  0.224398818

 FORCES acting on ions
    electron-ion (+dipol)            ewald-force                    non-local-force                 convergence-correction
   0.270E-08 -.156E-08 0.517E-14   -.102E-12 0.730E-13 -.305E-14   0.173E-16 -.173E-17 0.000E+00   0.416E-09 -.240E-09 -.108E-15
   0.362E-07 -.209E-07 -.140E-13   0.104E-12 -.733E-13 0.305E-14   -.147E-16 0.000E+00 0.000E+00   -.415E-09 0.239E-09 0.204E-16
   0.389E-07 -.225E-07 -.879E-14   0.195E-14 -.319E-15 -.696E-17   0.260E-17 -.173E-17 0.000E+00   0.107E-11 -.619E-12 -.876E-16

 POSITION                                       TOTAL-FORCE (eV/Angst)
     -0.00000      0.00000      0.00000        -0.000000      0.000000      0.000000
     -0.00000      1.63749      2.22818         0.000000     -0.000000     -0.000000
    total drift:                                0.000000     -0.000000     -0.000000

  FREE ENERGIE OF THE ION-ELECTRON SYSTEM (eV)
  free  energy   TOTEN  =        -9.81817234 eV

  energy  without entropy=       -9.81447643  energy(sigma->0) =       -9.81632438

 d Force = 0.0000000E+00[ 0.000E+00, 0.000E+00]  d Energy = 0.1228907E-04-0.123E-04
 d Force = 0.0000000E+00[ 0.000E+00, 0.000E+00]  d Ewald  =-0.2457565E-02 0.246E-02

 reached required accuracy - stopping structural energy minimisation
 writing wavefunctions